3
Lattice="1.6215099832053546e-17 2.794606736741408 2.794606736741408 2.794606736741408 -2.4868374718263658e-18 2.794606736741408 2.794606736741408 2.794606736741408 2.2803370096068263e-19" Properties=species:S:1:pos:R:3:magmoms:R:1:forces:R:3 energy=-11.651393713236313 free_energy=-11.655070446509379 dipole="7.418056026684527e-14 7.622713526143966e-14 7.56071770496536e-14" magmom=0.0 stress="2.1807876229653874e-05 -2.0738928074678843e-19 -2.0738928074678843e-19 -2.0738928074678843e-19 2.1807876229653847e-05 8.295571229871537e-19 -2.0738928074678843e-19 8.295571229871537e-19 2.18078762296539e-05" pbc="T T T"
Cu       4.19191011       4.19191011       4.19191011       0.00000000      -0.00000000      -0.00000000       0.00000000
Cu       1.39730337       1.39730337       1.39730337       0.00000000       0.00000000       0.00000000       0.00000000
S        0.00000000       0.00000000       0.00000000       0.00000000      -0.00000000       0.00000000       0.00000000
