144
Lattice="15.246000006677784 0.0 0.0 0.0 11.884000005204948 0.0 -5.989357161624333 0.0 12.09196580129698" Properties=species:S:1:pos:R:3:forces:R:3 energy=-573.7003689999697 pbc="T T T"
S        9.55381000       0.98518000      10.18385000      -0.12533100       0.02841500       0.03119300
S       -3.29184000       6.92718000       7.95410000       0.12533100       0.02841500      -0.03119300
S       -0.29717000      10.89882000       1.90811000       0.12533100      -0.02841500      -0.03119300
S       12.54849001       4.95682000       4.13787000      -0.12533100      -0.02841500       0.03119300
S       12.27754001       0.91269000       4.18624000      -0.12639400      -0.04193100       0.02722300
S       -0.02622000       6.85469000       1.85974000       0.12639400      -0.04193100      -0.02722300
S       -3.02090000      10.97131000       7.90573000       0.12639400       0.04193100      -0.02722300
S        9.28287000       5.02931000      10.23222000      -0.12639400       0.04193100       0.02722300
S        9.06992000       0.97924000       6.12821000      -0.01344600      -0.06841800      -0.05141100
S       -2.80795000       6.92124000      12.00974001       0.01344600      -0.06841800       0.05141100
S        0.18673000      10.90476000       5.96376000       0.01344600       0.06841800       0.05141100
S       12.06460001       4.96276000       0.08223000      -0.01344600       0.06841800      -0.05141100
S       12.03432001       0.97092000       0.07255000       0.06336400       0.00235800      -0.04048600
S        0.21700000       6.91292000       5.97343000      -0.06336400       0.00235800       0.04048600
S       -2.77768000      10.91308000      12.01941001      -0.06336400      -0.00235800       0.04048600
S        9.03964000       4.97108000       6.11853000       0.06336400      -0.00235800      -0.04048600
S        3.17371000       1.04936000       7.41600000      -0.09943500      -0.03336400       0.05118400
S        3.08826000       6.99136000      10.72195000       0.09943500      -0.03336400      -0.05118400
S        6.08294000      10.83464000       4.67596000       0.09943500       0.03336400      -0.05118400
S        6.16838000       4.89264000       1.37002000      -0.09943500       0.03336400       0.05118400
S        6.20214000       0.86278000       1.15720000       0.13697200      -0.06150700      -0.11992900
S        6.04918000       6.80478000       4.88878000      -0.13697200      -0.06150700       0.11992900
S        3.05450000      11.02122000      10.93476000      -0.13697200       0.06150700       0.11992900
S        3.20746000       5.07922000       7.20318000       0.13697200       0.06150700      -0.11992900
S       -0.14015000       0.92814000       9.51396000       0.20762400      -0.18745400       0.03406200
S        6.40212000       6.87014000       8.62399000      -0.20762400      -0.18745400      -0.03406200
S        9.39679000      10.95586000       2.57801000      -0.20762400       0.18745400      -0.03406200
S        2.85453000       5.01386000       3.46798000       0.20762400       0.18745400       0.03406200
S        2.61609000       0.98875000       3.46918000      -0.37959400      -0.04551900      -0.05101000
S        9.63523000       6.93075000       2.57680000       0.37959400      -0.04551900       0.05101000
S        6.64055000      10.89525000       8.62278000       0.37959400       0.04551900       0.05101000
S       -0.37859000       4.95325000       9.51517000      -0.37959400       0.04551900      -0.05101000
S        6.28690000       2.94842000       8.73040000      -0.10168400      -0.04583200       0.13465600
S       -0.02494000       8.89042000       9.40755000       0.10168400      -0.04583200      -0.13465600
S        2.96974000       8.93558000       3.36157000       0.10168400       0.04583200      -0.13465600
S        9.28158000       2.99358000       2.68442000      -0.10168400       0.04583200       0.13465600
S        5.85752000       2.65845000       5.03872000      -0.06758200      -0.17768100       0.10319200
S        6.39380000       8.60045000       1.00726000       0.06758200      -0.17768100      -0.10319200
S        3.39912000       9.22555000       7.05324000       0.06758200       0.17768100      -0.10319200
S        2.86284000       3.28355000      11.08471000      -0.06758200       0.17768100       0.10319200
S        0.14893000       2.83315000       5.76303000      -0.06321300      -0.00244500      -0.18387100
S       12.10239001       8.77515000       0.28295000       0.06321300      -0.00244500       0.18387100
S        9.10771000       9.05085000       6.32893000       0.06321300       0.00244500       0.18387100
S       -2.84574000       3.10885000      11.80901001      -0.06321300       0.00244500      -0.18387100
S       -0.06140000       2.76184000       1.61065000       0.03337400      -0.21779400      -0.22678900
S       12.31272001       8.70384000       4.43533000      -0.03337400      -0.21779400       0.22678900
S        9.31804000       9.12216000      10.48132000      -0.03337400       0.21779400       0.22678900
S       -3.05608000       3.18016000       7.65663000       0.03337400       0.21779400      -0.22678900
Cu      11.42708001       2.96625000       3.53932000      -0.05651700      -0.01838300      -0.06602600
Cu       0.82424000       8.90825000       2.50666000       0.05651700      -0.01838300       0.06602600
Cu      -2.17044000       8.91775000       8.55265000       0.05651700       0.01838300       0.06602600
Cu       8.43240000       2.97575000       9.58530000      -0.05651700       0.01838300      -0.06602600
Cu       5.35651000       0.87942000       8.18021000      -0.06897800      -0.04262000       0.06735700
Cu       0.90546000       6.82142000       9.95773000       0.06897800      -0.04262000      -0.06735700
Cu       3.90014000      11.00458000       3.91175000       0.06897800       0.04262000      -0.06735700
Cu       8.35119000       5.06258000       2.13423000      -0.06897800       0.04262000       0.06735700
Cu       8.29869000       1.08857000       2.02782000      -0.01300300      -0.07974400      -0.06141200
Cu       3.95263000       7.03057000       4.01816000       0.01300300      -0.07974400       0.06141200
Cu       0.95795000      10.79543000      10.06414000       0.01300300       0.07974400       0.06141200
Cu       5.30402000       4.85343000       8.07381000      -0.01300300       0.07974400      -0.06141200
Cu       5.09343000       2.85216000       0.88392000      -0.07108800      -0.01347300      -0.00268500
Cu       7.15789000       8.79416000       5.16206000       0.07108800      -0.01347300       0.00268500
Cu       4.16322000       9.03184000      11.20804000       0.07108800       0.01347300       0.00268500
Cu       2.09875000       3.08984000       6.92991000      -0.07108800       0.01347300      -0.00268500
Cu      -3.71515000       1.00895000      11.42812000       0.06764100       0.03980500       0.03965000
Cu       9.97712000       6.95095000       6.70983000      -0.06764100       0.03980500      -0.03965000
Cu      12.97179001      10.87505000       0.66385000      -0.06764100      -0.03980500      -0.03965000
Cu      -0.72047000       4.93305000       5.38213000       0.06764100      -0.03980500       0.03965000
Cu      -1.02899000       0.93052000       5.35553000       0.00729300      -0.02111000      -0.01510800
Cu      13.28031001       6.87252000       0.69045000      -0.00729300      -0.02111000       0.01510800
Cu      10.28563000      10.95348000       6.73643000      -0.00729300       0.02111000       0.01510800
Cu      -4.02367000       5.01148000      11.40151000       0.00729300       0.02111000      -0.01510800
Cu       8.30415000       1.46530000      11.99886001      -0.14067400       0.13623700      -0.04007200
Cu      -2.04218000       7.40730000       6.13909000       0.14067400       0.13623700       0.04007200
Cu       0.95249000      10.41870000       0.09311000       0.14067400      -0.13623700       0.04007200
Cu      11.29883000       4.47670000       5.95287000      -0.14067400      -0.13623700      -0.04007200
Cu      11.29861000       1.67802000       6.16569000       0.01527100       0.11659000      -0.07461600
Cu      -5.03665000       7.62002000      11.97226001      -0.01527100       0.11659000       0.07461600
Cu      -2.04197000      10.20598000       5.92627000      -0.01527100      -0.11659000       0.07461600
Cu      14.29329001       4.26398000       0.11971000       0.01527100      -0.11659000      -0.07461600
Cu       9.14880000       2.97575000       4.96859000       0.16495900       0.08450000       0.08709800
Cu       3.10252000       8.91775000       1.07739000      -0.16495900       0.08450000      -0.08709800
Cu       0.10784000       8.90825000       7.12338000      -0.16495900      -0.08450000      -0.08709800
Cu       6.15412000       2.96625000      11.01457000       0.16495900      -0.08450000       0.08709800
Cu       1.15360000       1.75527000      11.30357000      -0.06362900       0.15698700       0.05861000
Cu       5.10836000       7.69727000       6.83438000       0.06362900       0.15698700      -0.05861000
Cu       8.10304000      10.12873000       0.78840000       0.06362900      -0.15698700      -0.05861000
Cu       4.14828000       4.18673000       5.25759000      -0.06362900      -0.15698700       0.05861000
Cu       3.85752000       1.46054000       5.30595000       0.02558600       0.15978600      -0.05869200
Cu       8.39380000       7.40254000       0.74003000      -0.02558600       0.15978600       0.05869200
Cu       5.39912000      10.42346000       6.78601000      -0.02558600      -0.15978600       0.05869200
Cu       0.86284000       4.48146000      11.35194000       0.02558600      -0.15978600      -0.05869200
Cu      -1.16473000       2.80106000      10.28664000       0.11494900       0.02986800       0.06212300
Cu       7.42669000       8.74306000       7.85131000      -0.11494900       0.02986800      -0.06212300
Cu      10.42137000       9.08294000       1.80533000      -0.11494900      -0.02986800      -0.06212300
Cu       1.82995000       3.14094000       4.24065000       0.11494900      -0.02986800       0.06212300
Cu       8.42471000       0.42545000       8.25881000      -0.00680100      -0.02388300      -0.02316100
Cu      -2.16275000       6.36745000       9.87914000       0.00680100      -0.02388300       0.02316100
Cu       0.83193000      11.45855001       3.83315000       0.00680100       0.02388300       0.02316100
Cu      11.41939000       5.51655000       2.21283000      -0.00680100       0.02388300      -0.02316100
Cu      10.93680000       0.74156000       2.02057000      -0.00260700       0.00170400      -0.01585800
Cu       1.31453000       6.68356000       4.02542000       0.00260700       0.00170400       0.01585800
Cu      -1.68015000      11.14244000      10.07140000       0.00260700      -0.00170400       0.01585800
Cu       7.94212000       5.20044000       8.06655000      -0.00260700      -0.00170400      -0.01585800
Cu      -4.22706000       2.43028000       9.33742000      -0.05762800      -0.03228400       0.07870900
Cu      10.48903000       8.37228000       8.80053000       0.05762800      -0.03228400      -0.07870900
Cu      13.48370001       9.45372000       2.75455000       0.05762800       0.03228400      -0.07870900
Cu      -1.23238000       3.51172000       3.29143000      -0.05762800       0.03228400       0.07870900
Cu       5.96526000       0.94478000       3.42686000      -0.01711400       0.03411100       0.05203800
Cu       6.28607000       6.88678000       2.61912000       0.01711400       0.03411100      -0.05203800
Cu       3.29139000      10.93922000       8.66510000       0.01711400      -0.03411100      -0.05203800
Cu       2.97058000       4.99722000       9.47285000      -0.01711400      -0.03411100       0.05203800
Cu       0.87597000       0.51577000       7.53329000      -0.01211000      -0.00450600       0.08139000
Cu       5.38599000       6.45777000      10.60465000       0.01211000      -0.00450600      -0.08139000
Cu       8.38067000      11.36823000       4.55867000       0.01211000       0.00450600      -0.08139000
Cu       3.87065000       5.42623000       1.48731000      -0.01211000       0.00450600       0.08139000
Cu       3.84806000       0.51220000       1.61911000       0.10620700       0.02569200       0.04708300
Cu       8.40327000       6.45420000       4.42687000      -0.10620700       0.02569200      -0.04708300
Cu       5.40859000      11.37180000      10.47285000      -0.10620700      -0.02569200      -0.04708300
Cu       0.85338000       5.42980000       7.66510000       0.10620700      -0.02569200       0.04708300
Cu       3.47571000       2.47425000       9.12097000       0.01336900      -0.02169200      -0.06335500
Cu       2.78626000       8.41625000       9.01698000      -0.01336900      -0.02169200       0.06335500
Cu       5.78094000       9.40975000       2.97100000      -0.01336900       0.02169200       0.06335500
Cu       6.47038000       3.46775000       3.07499000       0.01336900       0.02169200      -0.06335500
Cu      13.93651001       1.01727000       2.61912000       0.07009500       0.05828100       0.05887100
Cu      -1.68519000       6.95927000       3.42686000      -0.07009500       0.05828100      -0.05887100
Cu      -4.67987000      10.86673000       9.47285000      -0.07009500      -0.05828100      -0.05887100
Cu      10.94183000       4.92473000       8.66510000       0.07009500      -0.05828100       0.05887100
Cu       3.78523000       1.22643000      11.52485001      -0.05551200       0.07270100       0.04598000
Cu       2.47674000       7.16843000       6.61310000       0.05551200       0.07270100      -0.04598000
Cu       5.47141000      10.65757000       0.56711000       0.05551200      -0.07270100      -0.04598000
Cu       6.77991000       4.71557000       5.47887000      -0.05551200      -0.07270100       0.04598000
Cu       7.33923000       2.31025000       6.84284000       0.00800100       0.03127300      -0.00824400
Cu      -1.07727000       8.25225000      11.29511000      -0.00800100       0.03127300       0.00824400
Cu       1.91741000       9.57375000       5.24912000      -0.00800100      -0.03127300       0.00824400
Cu      10.33391000       3.63175000       0.79686000       0.00800100      -0.03127300      -0.00824400
Cu       2.25458000       2.45880000       1.69046000       0.00928400       0.01006100       0.04881000
Cu       9.99674000       8.40080000       4.35553000      -0.00928400       0.01006100      -0.04881000
Cu       7.00207000       9.42520000      10.40151000      -0.00928400      -0.01006100      -0.04881000
Cu      -0.74010000       3.48320000       7.73644000       0.00928400      -0.01006100       0.04881000
Cu      -2.07320000       1.14799000       8.21165000       0.00889100       0.03100100       0.01434500
Cu       8.33516000       7.08999000       9.92629000      -0.00889100       0.03100100      -0.01434500
Cu      11.32984000      10.73601000       3.88031000      -0.00889100      -0.03100100      -0.01434500
Cu       0.92148000       4.79401000       2.16567000       0.00889100      -0.03100100       0.01434500
