12
Lattice="5.552955999999999 0.0 3e-16 -3e-16 5.552955999999999 3e-16 0.0 0.0 5.552955999999999" Properties=species:S:1:pos:R:3 pbc="T T T"
Cu       1.38823900       1.38823900       4.16471700
Cu       1.38823900       4.16471700       4.16471700
Cu       1.38823900       4.16471700       1.38823900
Cu       1.38823900       1.38823900       1.38823900
Cu       4.16471700       1.38823900       1.38823900
Cu       4.16471700       4.16471700       1.38823900
Cu       4.16471700       4.16471700       4.16471700
Cu       4.16471700       1.38823900       4.16471700
S        0.00000000       0.00000000       0.00000000
S       -0.00000000       2.77647800       2.77647800
S        2.77647800       0.00000000       2.77647800
S        2.77647800       2.77647800       0.00000000
