1
Lattice="7.322206604503423e-18 2.0758656653650522 2.0758656653650522 2.0758656653650522 1.6915615438616114e-17 2.0758656653650522 2.0758656653650522 2.0758656653650522 -1.5144429485039276e-17" Properties=species:S:1:pos:R:3:forces:R:3:energies:R:1 energy=-3.223112894084131 stress="-3.070651605709582e-07 -7.884534970336884e-18 2.669699640931351e-18 -7.884534970336884e-18 -3.0706516051969455e-07 3.0093551198206217e-18 2.669699640931351e-18 3.0093551198206217e-18 -3.0706516055259453e-07" free_energy=-3.223112894084131 pbc="T T T"
Au       0.00000000       0.00000000       0.00000000       0.00000000       0.00000000       0.00000000      -3.22311289
