1
Lattice="-1.5302921436466634e-17 1.8147374208134641 1.8147374208134641 1.8147374208134641 -4.328174170082781e-17 1.8147374208134641 1.8147374208134641 1.8147374208134641 7.554691179367423e-18" Properties=species:S:1:pos:R:3:forces:R:3:energies:R:1 energy=-3.746325768466661 stress="-5.1111609632588925e-06 -3.342371512534831e-17 8.621657120190168e-18 -3.342371512534831e-17 -5.111160963127218e-06 -2.211683127263528e-17 8.621657120190168e-18 -2.211683127263528e-17 -5.111160963148523e-06" free_energy=-3.746325768466661 pbc="T T T"
Cu       0.00000000       0.00000000       0.00000000       0.00000000       0.00000000       0.00000000      -3.74632577
