1
Lattice="1.8091173701940726e-18 1.8147374208134635 1.8147374208134635 1.8147374208134635 8.656940495179077e-18 1.8147374208134635 1.8147374208134635 1.8147374208134635 -5.966310375497799e-19" Properties=species:S:1:pos:R:3 mixing_energy=0.0 energy=-3.746325768466658 pbc="T T T"
Cu       0.00000000       0.00000000       0.00000000
1
Lattice="1.8091173701940726e-18 1.8147374208134635 1.8147374208134635 1.8147374208134635 8.656940495179077e-18 1.8147374208134635 1.8147374208134635 1.8147374208134635 -5.966310375497799e-19" Properties=species:S:1:pos:R:3 mixing_energy=0.0 energy=-5.491119674118361 pbc="T T T"
Ni       0.00000000       0.00000000       0.00000000
2
Lattice="1.8091173701940726e-18 1.8147374208134635 1.8147374208134635 1.8147374208134635 8.656940495179077e-18 1.8147374208134635 3.629474841626927 3.629474841626927 -1.1932620750995598e-18" Properties=species:S:1:pos:R:3 mixing_energy=0.021639401343469533 energy=-9.19416663989808 pbc="T T T"
Cu       0.00000000       0.00000000       0.00000000
Ni       1.81473742       1.81473742      -0.00000000
2
Lattice="1.8091173701940726e-18 1.8147374208134635 1.8147374208134635 3.629474841626927 1.8147374208134635 1.8147374208134635 3.629474841626927 3.629474841626927 -1.1932620750995598e-18" Properties=species:S:1:pos:R:3 mixing_energy=0.03903188109189193 energy=-9.159381680401236 pbc="T T T"
Cu       0.00000000       0.00000000       0.00000000
Ni       1.81473742       1.81473742      -0.00000000
3
Lattice="1.8091173701940726e-18 1.8147374208134635 1.8147374208134635 1.8147374208134635 8.656940495179077e-18 1.8147374208134635 5.444212262440391 5.444212262440391 -1.78989311264934e-18" Properties=species:S:1:pos:R:3 mixing_energy=0.010744272977860625 energy=-12.951538392118096 pbc="T T T"
Cu       0.00000000       0.00000000       0.00000000
Cu       1.81473742       1.81473742      -0.00000000
Ni       3.62947484       3.62947484      -0.00000000
3
Lattice="1.8091173701940726e-18 1.8147374208134635 1.8147374208134635 1.8147374208134635 8.656940495179077e-18 1.8147374208134635 5.444212262440391 5.444212262440391 -1.78989311264934e-18" Properties=species:S:1:pos:R:3 mixing_energy=0.023081852123110497 energy=-14.65931956033405 pbc="T T T"
Cu       0.00000000       0.00000000       0.00000000
Ni       1.81473742       1.81473742      -0.00000000
Ni       3.62947484       3.62947484      -0.00000000
3
Lattice="1.8091173701940726e-18 1.8147374208134635 1.8147374208134635 3.629474841626927 1.8147374208134635 1.8147374208134635 5.444212262440391 5.444212262440391 -1.78989311264934e-18" Properties=species:S:1:pos:R:3 mixing_energy=0.024285061312315708 energy=-12.91091602711473 pbc="T T T"
Cu       0.00000000       0.00000000       0.00000000
Cu       1.81473742       1.81473742      -0.00000000
Ni       3.62947484       3.62947484      -0.00000000
3
Lattice="1.8091173701940726e-18 1.8147374208134635 1.8147374208134635 3.629474841626927 1.8147374208134635 1.8147374208134635 5.444212262440391 5.444212262440391 -1.78989311264934e-18" Properties=species:S:1:pos:R:3 mixing_energy=0.03836309542170232 energy=-14.613475830438274 pbc="T T T"
Cu       0.00000000       0.00000000       0.00000000
Ni       1.81473742       1.81473742      -0.00000000
Ni       3.62947484       3.62947484      -0.00000000
3
Lattice="1.8091173701940726e-18 1.8147374208134635 1.8147374208134635 5.444212262440391 3.629474841626927 1.8147374208134635 5.444212262440391 5.444212262440391 -1.78989311264934e-18" Properties=species:S:1:pos:R:3 mixing_energy=0.01685960610887201 energy=-12.933192392725061 pbc="T T T"
Cu       0.00000000       0.00000000       0.00000000
Cu       1.81473742       1.81473742      -0.00000000
Ni       3.62947484       3.62947484      -0.00000000
3
Lattice="1.8091173701940726e-18 1.8147374208134635 1.8147374208134635 5.444212262440391 3.629474841626927 1.8147374208134635 5.444212262440391 5.444212262440391 -1.78989311264934e-18" Properties=species:S:1:pos:R:3 mixing_energy=0.027965308425149733 energy=-14.644669191427932 pbc="T T T"
Cu       0.00000000       0.00000000       0.00000000
Ni       1.81473742       1.81473742      -0.00000000
Ni       3.62947484       3.62947484      -0.00000000
4
Lattice="1.8091173701940726e-18 1.8147374208134635 1.8147374208134635 1.8147374208134635 8.656940495179077e-18 1.8147374208134635 7.258949683253854 7.258949683253854 -2.3865241501991196e-18" Properties=species:S:1:pos:R:3 mixing_energy=0.007179436371879566 energy=-16.701379234030817 pbc="T T T"
Cu       0.00000000       0.00000000       0.00000000
Cu       1.81473742       1.81473742      -0.00000000
Cu       3.62947484       3.62947484      -0.00000000
Ni       5.44421226       5.44421226      -0.00000000
4
Lattice="1.8091173701940726e-18 1.8147374208134635 1.8147374208134635 1.8147374208134635 8.656940495179077e-18 1.8147374208134635 7.258949683253854 7.258949683253854 -2.3865241501991196e-18" Properties=species:S:1:pos:R:3 mixing_energy=0.01550191932239775 energy=-18.412883207880448 pbc="T T T"
Cu       0.00000000       0.00000000       0.00000000
Cu       1.81473742       1.81473742      -0.00000000
Ni       3.62947484       3.62947484      -0.00000000
Ni       5.44421226       5.44421226      -0.00000000
4
Lattice="1.8091173701940726e-18 1.8147374208134635 1.8147374208134635 1.8147374208134635 8.656940495179077e-18 1.8147374208134635 7.258949683253854 7.258949683253854 -2.3865241501991196e-18" Properties=species:S:1:pos:R:3 mixing_energy=0.01842739426425055 energy=-20.14597521376474 pbc="T T T"
Cu       0.00000000       0.00000000       0.00000000
Ni       1.81473742       1.81473742      -0.00000000
Ni       3.62947484       3.62947484      -0.00000000
Ni       5.44421226       5.44421226      -0.00000000
4
Lattice="1.8091173701940726e-18 1.8147374208134635 1.8147374208134635 3.629474841626927 1.8147374208134635 1.8147374208134635 7.258949683253854 7.258949683253854 -2.3865241501991196e-18" Properties=species:S:1:pos:R:3 mixing_energy=0.011938689785079282 energy=-16.68234222037802 pbc="T T T"
Cu       0.00000000       0.00000000       0.00000000
Cu       1.81473742       1.81473742      -0.00000000
Cu       3.62947484       3.62947484      -0.00000000
Ni       5.44421226       5.44421226      -0.00000000
4
Lattice="1.8091173701940726e-18 1.8147374208134635 1.8147374208134635 3.629474841626927 1.8147374208134635 1.8147374208134635 7.258949683253854 7.258949683253854 -2.3865241501991196e-18" Properties=species:S:1:pos:R:3 mixing_energy=0.025807611571171396 energy=-18.371660438885353 pbc="T T T"
Cu       0.00000000       0.00000000       0.00000000
Cu       1.81473742       1.81473742      -0.00000000
Ni       3.62947484       3.62947484      -0.00000000
Ni       5.44421226       5.44421226      -0.00000000
4
Lattice="1.8091173701940726e-18 1.8147374208134635 1.8147374208134635 3.629474841626927 1.8147374208134635 1.8147374208134635 7.258949683253854 7.258949683253854 -2.3865241501991196e-18" Properties=species:S:1:pos:R:3 mixing_energy=0.03168011786568403 energy=-20.092964319359005 pbc="T T T"
Cu       0.00000000       0.00000000       0.00000000
Ni       1.81473742       1.81473742      -0.00000000
Ni       3.62947484       3.62947484      -0.00000000
Ni       5.44421226       5.44421226      -0.00000000
4
Lattice="1.8091173701940726e-18 1.8147374208134635 1.8147374208134635 5.444212262440391 3.629474841626927 1.8147374208134635 7.258949683253854 7.258949683253854 -2.3865241501991196e-18" Properties=species:S:1:pos:R:3 mixing_energy=0.011402422237862586 energy=-16.684487290566885 pbc="T T T"
Cu       0.00000000       0.00000000       0.00000000
Cu       1.81473742       1.81473742      -0.00000000
Cu       3.62947484       3.62947484      -0.00000000
Ni       5.44421226       5.44421226      -0.00000000
4
Lattice="1.8091173701940726e-18 1.8147374208134635 1.8147374208134635 5.444212262440391 3.629474841626927 1.8147374208134635 7.258949683253854 7.258949683253854 -2.3865241501991196e-18" Properties=species:S:1:pos:R:3 mixing_energy=0.03111523233231539 energy=-18.350429955840777 pbc="T T T"
Cu       0.00000000       0.00000000       0.00000000
Cu       1.81473742       1.81473742      -0.00000000
Ni       3.62947484       3.62947484      -0.00000000
Ni       5.44421226       5.44421226      -0.00000000
4
Lattice="1.8091173701940726e-18 1.8147374208134635 1.8147374208134635 5.444212262440391 3.629474841626927 1.8147374208134635 7.258949683253854 7.258949683253854 -2.3865241501991196e-18" Properties=species:S:1:pos:R:3 mixing_energy=0.02952765168783067 energy=-20.10157418407042 pbc="T T T"
Cu       0.00000000       0.00000000       0.00000000
Ni       1.81473742       1.81473742      -0.00000000
Ni       3.62947484       3.62947484      -0.00000000
Ni       5.44421226       5.44421226      -0.00000000
4
Lattice="1.8091173701940726e-18 1.8147374208134635 1.8147374208134635 7.258949683253854 5.444212262440391 1.8147374208134635 7.258949683253854 7.258949683253854 -2.3865241501991196e-18" Properties=species:S:1:pos:R:3 mixing_energy=0.010644492777774905 energy=-16.687519008407236 pbc="T T T"
Cu       0.00000000       0.00000000       0.00000000
Cu       1.81473742       1.81473742      -0.00000000
Cu       3.62947484       3.62947484      -0.00000000
Ni       5.44421226       5.44421226      -0.00000000
4
Lattice="1.8091173701940726e-18 1.8147374208134635 1.8147374208134635 7.258949683253854 5.444212262440391 1.8147374208134635 7.258949683253854 7.258949683253854 -2.3865241501991196e-18" Properties=species:S:1:pos:R:3 mixing_energy=0.015755594136546147 energy=-18.411868508623854 pbc="T T T"
Cu       0.00000000       0.00000000       0.00000000
Cu       1.81473742       1.81473742      -0.00000000
Ni       3.62947484       3.62947484      -0.00000000
Ni       5.44421226       5.44421226      -0.00000000
4
Lattice="1.8091173701940726e-18 1.8147374208134635 1.8147374208134635 7.258949683253854 5.444212262440391 1.8147374208134635 7.258949683253854 7.258949683253854 -2.3865241501991196e-18" Properties=species:S:1:pos:R:3 mixing_energy=0.024437934340001632 energy=-20.121933053461735 pbc="T T T"
Cu       0.00000000       0.00000000       0.00000000
Ni       1.81473742       1.81473742      -0.00000000
Ni       3.62947484       3.62947484      -0.00000000
Ni       5.44421226       5.44421226      -0.00000000
4
Lattice="1.8147374208134635 3.629474841626927 1.8147374208134635 5.444212262440391 3.629474841626927 1.8147374208134635 7.258949683253854 7.258949683253854 -2.3865241501991196e-18" Properties=species:S:1:pos:R:3 mixing_energy=0.014969537275655531 energy=-16.670218830415713 pbc="T T T"
Cu       0.00000000       0.00000000       0.00000000
Cu       1.81473742       1.81473742      -0.00000000
Cu       3.62947484       3.62947484      -0.00000000
Ni       5.44421226       5.44421226      -0.00000000
4
Lattice="1.8147374208134635 3.629474841626927 1.8147374208134635 5.444212262440391 3.629474841626927 1.8147374208134635 7.258949683253854 7.258949683253854 -2.3865241501991196e-18" Properties=species:S:1:pos:R:3 mixing_energy=0.03645245756127613 energy=-18.329081054924934 pbc="T T T"
Cu       0.00000000       0.00000000       0.00000000
Cu       1.81473742       1.81473742      -0.00000000
Ni       3.62947484       3.62947484      -0.00000000
Ni       5.44421226       5.44421226      -0.00000000
4
Lattice="1.8147374208134635 3.629474841626927 1.8147374208134635 5.444212262440391 3.629474841626927 1.8147374208134635 7.258949683253854 7.258949683253854 -2.3865241501991196e-18" Properties=species:S:1:pos:R:3 mixing_energy=0.03690110428474469 energy=-20.072080373682763 pbc="T T T"
Cu       0.00000000       0.00000000       0.00000000
Ni       1.81473742       1.81473742      -0.00000000
Ni       3.62947484       3.62947484      -0.00000000
Ni       5.44421226       5.44421226      -0.00000000
4
Lattice="1.8091173701940726e-18 1.8147374208134635 1.8147374208134635 3.629474841626927 1.7313880990358154e-17 3.629474841626927 3.629474841626927 3.629474841626927 -1.1932620750995598e-18" Properties=species:S:1:pos:R:3 mixing_energy=0.01045047751583339 energy=-16.688295069455002 pbc="T T T"
Cu       0.00000000       0.00000000       0.00000000
Cu       1.81473742       1.81473742      -0.00000000
Cu       1.81473742       0.00000000       1.81473742
Ni       3.62947484       1.81473742       1.81473742
4
Lattice="1.8091173701940726e-18 1.8147374208134635 1.8147374208134635 3.629474841626927 1.7313880990358154e-17 3.629474841626927 3.629474841626927 3.629474841626927 -1.1932620750995598e-18" Properties=species:S:1:pos:R:3 mixing_energy=0.028349594971166958 energy=-20.106286410937074 pbc="T T T"
Cu       0.00000000       0.00000000       0.00000000
Ni       1.81473742       1.81473742      -0.00000000
Ni       1.81473742       0.00000000       1.81473742
Ni       3.62947484       1.81473742       1.81473742
4
Lattice="3.629474841626927 3.629474841626927 3.629474841626927 3.629474841626927 1.7313880990358154e-17 3.629474841626927 3.629474841626927 3.629474841626927 -1.1932620750995598e-18" Properties=species:S:1:pos:R:3 mixing_energy=0.01293119393195652 energy=-16.67837220379051 pbc="T T T"
Cu       0.00000000       0.00000000       0.00000000
Cu       1.81473742       1.81473742      -0.00000000
Cu       1.81473742       0.00000000       1.81473742
Ni       3.62947484       1.81473742       1.81473742
4
Lattice="3.629474841626927 3.629474841626927 3.629474841626927 3.629474841626927 1.7313880990358154e-17 3.629474841626927 3.629474841626927 3.629474841626927 -1.1932620750995598e-18" Properties=species:S:1:pos:R:3 mixing_energy=0.03836191006515932 energy=-20.066237150561104 pbc="T T T"
Cu       0.00000000       0.00000000       0.00000000
Ni       1.81473742       1.81473742      -0.00000000
Ni       1.81473742       0.00000000       1.81473742
Ni       3.62947484       1.81473742       1.81473742
5
Lattice="1.8091173701940726e-18 1.8147374208134635 1.8147374208134635 1.8147374208134635 8.656940495179077e-18 1.8147374208134635 9.073687104067318 9.073687104067318 -2.9831551877488993e-18" Properties=species:S:1:pos:R:3 mixing_energy=0.006819771628255289 energy=-20.442323889843717 pbc="T T T"
Cu       0.00000000       0.00000000       0.00000000
Cu       1.81473742       1.81473742      -0.00000000
Cu       3.62947484       3.62947484      -0.00000000
Cu       5.44421226       5.44421226      -0.00000000
Ni       7.25894968       7.25894968      -0.00000000
5
Lattice="1.8091173701940726e-18 1.8147374208134635 1.8147374208134635 1.8147374208134635 8.656940495179077e-18 1.8147374208134635 9.073687104067318 9.073687104067318 -2.9831551877488993e-18" Properties=species:S:1:pos:R:3 mixing_energy=0.013680006774456998 energy=-22.152816619764412 pbc="T T T"
Cu       0.00000000       0.00000000       0.00000000
Cu       1.81473742       1.81473742      -0.00000000
Cu       3.62947484       3.62947484      -0.00000000
Ni       5.44421226       5.44421226      -0.00000000
Ni       7.25894968       7.25894968      -0.00000000
5
Lattice="1.8091173701940726e-18 1.8147374208134635 1.8147374208134635 1.8147374208134635 8.656940495179077e-18 1.8147374208134635 9.073687104067318 9.073687104067318 -2.9831551877488993e-18" Properties=species:S:1:pos:R:3 mixing_energy=0.01482707372152312 energy=-22.14708128502908 pbc="T T T"
Cu       0.00000000       0.00000000       0.00000000
Cu       1.81473742       1.81473742      -0.00000000
Ni       3.62947484       3.62947484      -0.00000000
Cu       5.44421226       5.44421226      -0.00000000
Ni       7.25894968       7.25894968      -0.00000000
5
Lattice="1.8091173701940726e-18 1.8147374208134635 1.8147374208134635 1.8147374208134635 8.656940495179077e-18 1.8147374208134635 9.073687104067318 9.073687104067318 -2.9831551877488993e-18" Properties=species:S:1:pos:R:3 mixing_energy=0.0127709044949313 energy=-23.902156036813743 pbc="T T T"
Cu       0.00000000       0.00000000       0.00000000
Cu       1.81473742       1.81473742      -0.00000000
Ni       3.62947484       3.62947484      -0.00000000
Ni       5.44421226       5.44421226      -0.00000000
Ni       7.25894968       7.25894968      -0.00000000
5
Lattice="1.8091173701940726e-18 1.8147374208134635 1.8147374208134635 1.8147374208134635 8.656940495179077e-18 1.8147374208134635 9.073687104067318 9.073687104067318 -2.9831551877488993e-18" Properties=species:S:1:pos:R:3 mixing_energy=0.022919538809181718 energy=-23.85141286524249 pbc="T T T"
Cu       0.00000000       0.00000000       0.00000000
Ni       1.81473742       1.81473742      -0.00000000
Cu       3.62947484       3.62947484      -0.00000000
Ni       5.44421226       5.44421226      -0.00000000
Ni       7.25894968       7.25894968      -0.00000000
5
Lattice="1.8091173701940726e-18 1.8147374208134635 1.8147374208134635 1.8147374208134635 8.656940495179077e-18 1.8147374208134635 9.073687104067318 9.073687104067318 -2.9831551877488993e-18" Properties=species:S:1:pos:R:3 mixing_energy=0.014196548804014952 energy=-25.63982172092003 pbc="T T T"
Cu       0.00000000       0.00000000       0.00000000
Ni       1.81473742       1.81473742      -0.00000000
Ni       3.62947484       3.62947484      -0.00000000
Ni       5.44421226       5.44421226      -0.00000000
Ni       7.25894968       7.25894968      -0.00000000
5
Lattice="1.8091173701940726e-18 1.8147374208134635 1.8147374208134635 3.629474841626927 1.8147374208134635 1.8147374208134635 9.073687104067318 9.073687104067318 -2.9831551877488993e-18" Properties=species:S:1:pos:R:3 mixing_energy=0.008831592026213109 energy=-20.432264787853928 pbc="T T T"
Cu       0.00000000       0.00000000       0.00000000
Cu       1.81473742       1.81473742      -0.00000000
Cu       3.62947484       3.62947484      -0.00000000
Cu       5.44421226       5.44421226      -0.00000000
Ni       7.25894968       7.25894968      -0.00000000
5
Lattice="1.8091173701940726e-18 1.8147374208134635 1.8147374208134635 3.629474841626927 1.8147374208134635 1.8147374208134635 9.073687104067318 9.073687104067318 -2.9831551877488993e-18" Properties=species:S:1:pos:R:3 mixing_energy=0.01667831557701227 energy=-22.137825075751635 pbc="T T T"
Cu       0.00000000       0.00000000       0.00000000
Cu       1.81473742       1.81473742      -0.00000000
Cu       3.62947484       3.62947484      -0.00000000
Ni       5.44421226       5.44421226      -0.00000000
Ni       7.25894968       7.25894968      -0.00000000
5
Lattice="1.8091173701940726e-18 1.8147374208134635 1.8147374208134635 3.629474841626927 1.8147374208134635 1.8147374208134635 9.073687104067318 9.073687104067318 -2.9831551877488993e-18" Properties=species:S:1:pos:R:3 mixing_energy=0.029820553886890977 energy=-22.072113884202242 pbc="T T T"
Cu       0.00000000       0.00000000       0.00000000
Cu       1.81473742       1.81473742      -0.00000000
Ni       3.62947484       3.62947484      -0.00000000
Cu       5.44421226       5.44421226      -0.00000000
Ni       7.25894968       7.25894968      -0.00000000
5
Lattice="1.8091173701940726e-18 1.8147374208134635 1.8147374208134635 3.629474841626927 1.8147374208134635 1.8147374208134635 9.073687104067318 9.073687104067318 -2.9831551877488993e-18" Properties=species:S:1:pos:R:3 mixing_energy=0.02603622180675629 energy=-23.835829450254618 pbc="T T T"
Cu       0.00000000       0.00000000       0.00000000
Cu       1.81473742       1.81473742      -0.00000000
Ni       3.62947484       3.62947484      -0.00000000
Ni       5.44421226       5.44421226      -0.00000000
Ni       7.25894968       7.25894968      -0.00000000
5
Lattice="1.8091173701940726e-18 1.8147374208134635 1.8147374208134635 3.629474841626927 1.8147374208134635 1.8147374208134635 9.073687104067318 9.073687104067318 -2.9831551877488993e-18" Properties=species:S:1:pos:R:3 mixing_energy=0.0386343840183514 energy=-23.772838639196642 pbc="T T T"
Cu       0.00000000       0.00000000       0.00000000
Ni       1.81473742       1.81473742      -0.00000000
Cu       3.62947484       3.62947484      -0.00000000
Ni       5.44421226       5.44421226      -0.00000000
Ni       7.25894968       7.25894968      -0.00000000
5
Lattice="1.8091173701940726e-18 1.8147374208134635 1.8147374208134635 3.629474841626927 1.8147374208134635 1.8147374208134635 9.073687104067318 9.073687104067318 -2.9831551877488993e-18" Properties=species:S:1:pos:R:3 mixing_energy=0.027432597925224657 energy=-25.57364147531398 pbc="T T T"
Cu       0.00000000       0.00000000       0.00000000
Ni       1.81473742       1.81473742      -0.00000000
Ni       3.62947484       3.62947484      -0.00000000
Ni       5.44421226       5.44421226      -0.00000000
Ni       7.25894968       7.25894968      -0.00000000
5
Lattice="1.8091173701940726e-18 1.8147374208134635 1.8147374208134635 5.444212262440391 3.629474841626927 1.8147374208134635 9.073687104067318 9.073687104067318 -2.9831551877488993e-18" Properties=species:S:1:pos:R:3 mixing_energy=0.007070270698305414 energy=-20.441071394493466 pbc="T T T"
Cu       0.00000000       0.00000000       0.00000000
Cu       1.81473742       1.81473742      -0.00000000
Cu       3.62947484       3.62947484      -0.00000000
Cu       5.44421226       5.44421226      -0.00000000
Ni       7.25894968       7.25894968      -0.00000000
5
Lattice="1.8091173701940726e-18 1.8147374208134635 1.8147374208134635 5.444212262440391 3.629474841626927 1.8147374208134635 9.073687104067318 9.073687104067318 -2.9831551877488993e-18" Properties=species:S:1:pos:R:3 mixing_energy=0.022993344199467813 energy=-22.106249932639358 pbc="T T T"
Cu       0.00000000       0.00000000       0.00000000
Cu       1.81473742       1.81473742      -0.00000000
Cu       3.62947484       3.62947484      -0.00000000
Ni       5.44421226       5.44421226      -0.00000000
Ni       7.25894968       7.25894968      -0.00000000
5
Lattice="1.8091173701940726e-18 1.8147374208134635 1.8147374208134635 5.444212262440391 3.629474841626927 1.8147374208134635 9.073687104067318 9.073687104067318 -2.9831551877488993e-18" Properties=species:S:1:pos:R:3 mixing_energy=0.01931107264959202 energy=-22.124661290388737 pbc="T T T"
Cu       0.00000000       0.00000000       0.00000000
Cu       1.81473742       1.81473742      -0.00000000
Ni       3.62947484       3.62947484      -0.00000000
Cu       5.44421226       5.44421226      -0.00000000
Ni       7.25894968       7.25894968      -0.00000000
5
Lattice="1.8091173701940726e-18 1.8147374208134635 1.8147374208134635 5.444212262440391 3.629474841626927 1.8147374208134635 9.073687104067318 9.073687104067318 -2.9831551877488993e-18" Properties=species:S:1:pos:R:3 mixing_energy=0.03291423627160199 energy=-23.80143937793039 pbc="T T T"
Cu       0.00000000       0.00000000       0.00000000
Cu       1.81473742       1.81473742      -0.00000000
Ni       3.62947484       3.62947484      -0.00000000
Ni       5.44421226       5.44421226      -0.00000000
Ni       7.25894968       7.25894968      -0.00000000
5
Lattice="1.8091173701940726e-18 1.8147374208134635 1.8147374208134635 5.444212262440391 3.629474841626927 1.8147374208134635 9.073687104067318 9.073687104067318 -2.9831551877488993e-18" Properties=species:S:1:pos:R:3 mixing_energy=0.02817745268208327 energy=-23.825123295877983 pbc="T T T"
Cu       0.00000000       0.00000000       0.00000000
Ni       1.81473742       1.81473742      -0.00000000
Cu       3.62947484       3.62947484      -0.00000000
Ni       5.44421226       5.44421226      -0.00000000
Ni       7.25894968       7.25894968      -0.00000000
5
Lattice="1.8091173701940726e-18 1.8147374208134635 1.8147374208134635 5.444212262440391 3.629474841626927 1.8147374208134635 9.073687104067318 9.073687104067318 -2.9831551877488993e-18" Properties=species:S:1:pos:R:3 mixing_energy=0.0259935091130437 energy=-25.580836919374885 pbc="T T T"
Cu       0.00000000       0.00000000       0.00000000
Ni       1.81473742       1.81473742      -0.00000000
Ni       3.62947484       3.62947484      -0.00000000
Ni       5.44421226       5.44421226      -0.00000000
Ni       7.25894968       7.25894968      -0.00000000
5
Lattice="1.8091173701940726e-18 1.8147374208134635 1.8147374208134635 9.073687104067318 7.258949683253854 1.8147374208134635 9.073687104067318 9.073687104067318 -2.9831551877488993e-18" Properties=species:S:1:pos:R:3 mixing_energy=0.009010791573829202 energy=-20.431368790115847 pbc="T T T"
Cu       0.00000000       0.00000000       0.00000000
Cu       1.81473742       1.81473742      -0.00000000
Cu       3.62947484       3.62947484      -0.00000000
Cu       5.44421226       5.44421226      -0.00000000
Ni       7.25894968       7.25894968      -0.00000000
5
Lattice="1.8091173701940726e-18 1.8147374208134635 1.8147374208134635 9.073687104067318 7.258949683253854 1.8147374208134635 9.073687104067318 9.073687104067318 -2.9831551877488993e-18" Properties=species:S:1:pos:R:3 mixing_energy=0.012350155969999933 energy=-22.159465873786697 pbc="T T T"
Cu       0.00000000       0.00000000       0.00000000
Cu       1.81473742       1.81473742      -0.00000000
Cu       3.62947484       3.62947484      -0.00000000
Ni       5.44421226       5.44421226      -0.00000000
Ni       7.25894968       7.25894968      -0.00000000
5
Lattice="1.8091173701940726e-18 1.8147374208134635 1.8147374208134635 9.073687104067318 7.258949683253854 1.8147374208134635 9.073687104067318 9.073687104067318 -2.9831551877488993e-18" Properties=species:S:1:pos:R:3 mixing_energy=0.02530101139559058 energy=-22.094711596658744 pbc="T T T"
Cu       0.00000000       0.00000000       0.00000000
Cu       1.81473742       1.81473742      -0.00000000
Ni       3.62947484       3.62947484      -0.00000000
Cu       5.44421226       5.44421226      -0.00000000
Ni       7.25894968       7.25894968      -0.00000000
5
Lattice="1.8091173701940726e-18 1.8147374208134635 1.8147374208134635 9.073687104067318 7.258949683253854 1.8147374208134635 9.073687104067318 9.073687104067318 -2.9831551877488993e-18" Properties=species:S:1:pos:R:3 mixing_energy=0.01506202790278266 energy=-23.890700419774486 pbc="T T T"
Cu       0.00000000       0.00000000       0.00000000
Cu       1.81473742       1.81473742      -0.00000000
Ni       3.62947484       3.62947484      -0.00000000
Ni       5.44421226       5.44421226      -0.00000000
Ni       7.25894968       7.25894968      -0.00000000
5
Lattice="1.8091173701940726e-18 1.8147374208134635 1.8147374208134635 9.073687104067318 7.258949683253854 1.8147374208134635 9.073687104067318 9.073687104067318 -2.9831551877488993e-18" Properties=species:S:1:pos:R:3 mixing_energy=0.03235577990597136 energy=-23.804231659758543 pbc="T T T"
Cu       0.00000000       0.00000000       0.00000000
Ni       1.81473742       1.81473742      -0.00000000
Cu       3.62947484       3.62947484      -0.00000000
Ni       5.44421226       5.44421226      -0.00000000
Ni       7.25894968       7.25894968      -0.00000000
5
Lattice="1.8091173701940726e-18 1.8147374208134635 1.8147374208134635 9.073687104067318 7.258949683253854 1.8147374208134635 9.073687104067318 9.073687104067318 -2.9831551877488993e-18" Properties=species:S:1:pos:R:3 mixing_energy=0.019200111761217185 energy=-25.614803906134018 pbc="T T T"
Cu       0.00000000       0.00000000       0.00000000
Ni       1.81473742       1.81473742      -0.00000000
Ni       3.62947484       3.62947484      -0.00000000
Ni       5.44421226       5.44421226      -0.00000000
Ni       7.25894968       7.25894968      -0.00000000
5
Lattice="1.8147374208134635 3.629474841626927 1.8147374208134635 5.444212262440391 3.629474841626927 1.8147374208134635 9.073687104067318 9.073687104067318 -2.9831551877488993e-18" Properties=species:S:1:pos:R:3 mixing_energy=0.009885776711929672 energy=-20.426993864425345 pbc="T T T"
Cu       0.00000000       0.00000000       0.00000000
Cu       1.81473742       1.81473742      -0.00000000
Cu       3.62947484       3.62947484      -0.00000000
Cu       5.44421226       5.44421226      -0.00000000
Ni       7.25894968       7.25894968      -0.00000000
5
Lattice="1.8147374208134635 3.629474841626927 1.8147374208134635 5.444212262440391 3.629474841626927 1.8147374208134635 9.073687104067318 9.073687104067318 -2.9831551877488993e-18" Properties=species:S:1:pos:R:3 mixing_energy=0.027187551525546992 energy=-22.085278896008962 pbc="T T T"
Cu       0.00000000       0.00000000       0.00000000
Cu       1.81473742       1.81473742      -0.00000000
Cu       3.62947484       3.62947484      -0.00000000
Ni       5.44421226       5.44421226      -0.00000000
Ni       7.25894968       7.25894968      -0.00000000
5
Lattice="1.8147374208134635 3.629474841626927 1.8147374208134635 5.444212262440391 3.629474841626927 1.8147374208134635 9.073687104067318 9.073687104067318 -2.9831551877488993e-18" Properties=species:S:1:pos:R:3 mixing_energy=0.0381628915265253 energy=-23.775196101655773 pbc="T T T"
Cu       0.00000000       0.00000000       0.00000000
Cu       1.81473742       1.81473742      -0.00000000
Ni       3.62947484       3.62947484      -0.00000000
Ni       5.44421226       5.44421226      -0.00000000
Ni       7.25894968       7.25894968      -0.00000000
5
Lattice="1.8147374208134635 3.629474841626927 1.8147374208134635 5.444212262440391 3.629474841626927 1.8147374208134635 9.073687104067318 9.073687104067318 -2.9831551877488993e-18" Properties=species:S:1:pos:R:3 mixing_energy=0.03171082057952575 energy=-25.552250362042475 pbc="T T T"
Cu       0.00000000       0.00000000       0.00000000
Ni       1.81473742       1.81473742      -0.00000000
Ni       3.62947484       3.62947484      -0.00000000
Ni       5.44421226       5.44421226      -0.00000000
Ni       7.25894968       7.25894968      -0.00000000
6
Lattice="1.8091173701940726e-18 1.8147374208134635 1.8147374208134635 1.8147374208134635 8.656940495179077e-18 1.8147374208134635 10.888424524880781 10.888424524880781 -3.57978622529868e-18" Properties=species:S:1:pos:R:3 mixing_energy=0.00597249213652266 energy=-24.186913563632515 pbc="T T T"
Cu       0.00000000       0.00000000       0.00000000
Cu       1.81473742       1.81473742      -0.00000000
Cu       3.62947484       3.62947484      -0.00000000
Cu       5.44421226       5.44421226       0.00000000
Cu       7.25894968       7.25894968      -0.00000000
Ni       9.07368710       9.07368710       0.00000000
6
Lattice="1.8091173701940726e-18 1.8147374208134635 1.8147374208134635 1.8147374208134635 8.656940495179077e-18 1.8147374208134635 10.888424524880781 10.888424524880781 -3.57978622529868e-18" Properties=species:S:1:pos:R:3 mixing_energy=0.012645829062032673 energy=-25.89166744773116 pbc="T T T"
Cu       0.00000000       0.00000000       0.00000000
Cu       1.81473742       1.81473742      -0.00000000
Cu       3.62947484       3.62947484      -0.00000000
Cu       5.44421226       5.44421226       0.00000000
Ni       7.25894968       7.25894968      -0.00000000
Ni       9.07368710       9.07368710       0.00000000
6
Lattice="1.8091173701940726e-18 1.8147374208134635 1.8147374208134635 1.8147374208134635 8.656940495179077e-18 1.8147374208134635 10.888424524880781 10.888424524880781 -3.57978622529868e-18" Properties=species:S:1:pos:R:3 mixing_energy=0.01222986216476792 energy=-25.894163249114747 pbc="T T T"
Cu       0.00000000       0.00000000       0.00000000
Cu       1.81473742       1.81473742      -0.00000000
Cu       3.62947484       3.62947484      -0.00000000
Ni       5.44421226       5.44421226       0.00000000
Cu       7.25894968       7.25894968      -0.00000000
Ni       9.07368710       9.07368710       0.00000000
6
Lattice="1.8091173701940726e-18 1.8147374208134635 1.8147374208134635 1.8147374208134635 8.656940495179077e-18 1.8147374208134635 10.888424524880781 10.888424524880781 -3.57978622529868e-18" Properties=species:S:1:pos:R:3 mixing_energy=0.01211235120284293 energy=-27.639662220538 pbc="T T T"
Cu       0.00000000       0.00000000       0.00000000
Cu       1.81473742       1.81473742      -0.00000000
Cu       3.62947484       3.62947484      -0.00000000
Ni       5.44421226       5.44421226       0.00000000
Ni       7.25894968       7.25894968      -0.00000000
Ni       9.07368710       9.07368710       0.00000000
6
Lattice="1.8091173701940726e-18 1.8147374208134635 1.8147374208134635 1.8147374208134635 8.656940495179077e-18 1.8147374208134635 10.888424524880781 10.888424524880781 -3.57978622529868e-18" Properties=species:S:1:pos:R:3 mixing_energy=0.01755387439141683 energy=-27.607013081406556 pbc="T T T"
Cu       0.00000000       0.00000000       0.00000000
Cu       1.81473742       1.81473742      -0.00000000
Ni       3.62947484       3.62947484      -0.00000000
Cu       5.44421226       5.44421226       0.00000000
Ni       7.25894968       7.25894968      -0.00000000
Ni       9.07368710       9.07368710       0.00000000
6
Lattice="1.8091173701940726e-18 1.8147374208134635 1.8147374208134635 1.8147374208134635 8.656940495179077e-18 1.8147374208134635 10.888424524880781 10.888424524880781 -3.57978622529868e-18" Properties=species:S:1:pos:R:3 mixing_energy=0.010568668986432902 energy=-29.393718219488164 pbc="T T T"
Cu       0.00000000       0.00000000       0.00000000
Cu       1.81473742       1.81473742      -0.00000000
Ni       3.62947484       3.62947484      -0.00000000
Ni       5.44421226       5.44421226       0.00000000
Ni       7.25894968       7.25894968      -0.00000000
Ni       9.07368710       9.07368710       0.00000000
6
Lattice="1.8091173701940726e-18 1.8147374208134635 1.8147374208134635 1.8147374208134635 8.656940495179077e-18 1.8147374208134635 10.888424524880781 10.888424524880781 -3.57978622529868e-18" Properties=species:S:1:pos:R:3 mixing_energy=0.020020112810619512 energy=-29.337009556543045 pbc="T T T"
Cu       0.00000000       0.00000000       0.00000000
Ni       1.81473742       1.81473742      -0.00000000
Cu       3.62947484       3.62947484      -0.00000000
Ni       5.44421226       5.44421226       0.00000000
Ni       7.25894968       7.25894968      -0.00000000
Ni       9.07368710       9.07368710       0.00000000
6
Lattice="1.8091173701940726e-18 1.8147374208134635 1.8147374208134635 1.8147374208134635 8.656940495179077e-18 1.8147374208134635 10.888424524880781 10.888424524880781 -3.57978622529868e-18" Properties=species:S:1:pos:R:3 mixing_energy=0.011967334667131032 energy=-31.13012013105568 pbc="T T T"
Cu       0.00000000       0.00000000       0.00000000
Ni       1.81473742       1.81473742      -0.00000000
Ni       3.62947484       3.62947484      -0.00000000
Ni       5.44421226       5.44421226       0.00000000
Ni       7.25894968       7.25894968      -0.00000000
Ni       9.07368710       9.07368710       0.00000000
6
Lattice="1.8091173701940726e-18 1.8147374208134635 1.8147374208134635 3.629474841626927 1.8147374208134635 1.8147374208134635 10.888424524880781 10.888424524880781 -3.57978622529868e-18" Properties=species:S:1:pos:R:3 mixing_energy=0.007314096686593737 energy=-24.17886393633209 pbc="T T T"
Cu       0.00000000       0.00000000       0.00000000
Cu       1.81473742       1.81473742      -0.00000000
Cu       3.62947484       3.62947484      -0.00000000
Cu       5.44421226       5.44421226       0.00000000
Cu       7.25894968       7.25894968      -0.00000000
Ni       9.07368710       9.07368710       0.00000000
6
Lattice="1.8091173701940726e-18 1.8147374208134635 1.8147374208134635 3.629474841626927 1.8147374208134635 1.8147374208134635 10.888424524880781 10.888424524880781 -3.57978622529868e-18" Properties=species:S:1:pos:R:3 mixing_energy=0.013686054983923354 energy=-25.885426092199815 pbc="T T T"
Cu       0.00000000       0.00000000       0.00000000
Cu       1.81473742       1.81473742      -0.00000000
Cu       3.62947484       3.62947484      -0.00000000
Cu       5.44421226       5.44421226       0.00000000
Ni       7.25894968       7.25894968      -0.00000000
Ni       9.07368710       9.07368710       0.00000000
6
Lattice="1.8091173701940726e-18 1.8147374208134635 1.8147374208134635 3.629474841626927 1.8147374208134635 1.8147374208134635 10.888424524880781 10.888424524880781 -3.57978622529868e-18" Properties=species:S:1:pos:R:3 mixing_energy=0.021103871887736325 energy=-25.840919190776937 pbc="T T T"
Cu       0.00000000       0.00000000       0.00000000
Cu       1.81473742       1.81473742      -0.00000000
Cu       3.62947484       3.62947484      -0.00000000
Ni       5.44421226       5.44421226       0.00000000
Cu       7.25894968       7.25894968      -0.00000000
Ni       9.07368710       9.07368710       0.00000000
6
Lattice="1.8091173701940726e-18 1.8147374208134635 1.8147374208134635 3.629474841626927 1.8147374208134635 1.8147374208134635 10.888424524880781 10.888424524880781 -3.57978622529868e-18" Properties=species:S:1:pos:R:3 mixing_energy=0.018911998680100222 energy=-27.598864335674456 pbc="T T T"
Cu       0.00000000       0.00000000       0.00000000
Cu       1.81473742       1.81473742      -0.00000000
Cu       3.62947484       3.62947484      -0.00000000
Ni       5.44421226       5.44421226       0.00000000
Ni       7.25894968       7.25894968      -0.00000000
Ni       9.07368710       9.07368710       0.00000000
6
Lattice="1.8091173701940726e-18 1.8147374208134635 1.8147374208134635 3.629474841626927 1.8147374208134635 1.8147374208134635 10.888424524880781 10.888424524880781 -3.57978622529868e-18" Properties=species:S:1:pos:R:3 mixing_energy=0.03148851919788006 energy=-27.523405212567777 pbc="T T T"
Cu       0.00000000       0.00000000       0.00000000
Cu       1.81473742       1.81473742      -0.00000000
Ni       3.62947484       3.62947484      -0.00000000
Cu       5.44421226       5.44421226       0.00000000
Ni       7.25894968       7.25894968      -0.00000000
Ni       9.07368710       9.07368710       0.00000000
6
Lattice="1.8091173701940726e-18 1.8147374208134635 1.8147374208134635 3.629474841626927 1.8147374208134635 1.8147374208134635 10.888424524880781 10.888424524880781 -3.57978622529868e-18" Properties=species:S:1:pos:R:3 mixing_energy=0.023564608749169363 energy=-29.315742580911746 pbc="T T T"
Cu       0.00000000       0.00000000       0.00000000
Cu       1.81473742       1.81473742      -0.00000000
Ni       3.62947484       3.62947484      -0.00000000
Ni       5.44421226       5.44421226       0.00000000
Ni       7.25894968       7.25894968      -0.00000000
Ni       9.07368710       9.07368710       0.00000000
6
Lattice="1.8091173701940726e-18 1.8147374208134635 1.8147374208134635 3.629474841626927 1.8147374208134635 1.8147374208134635 10.888424524880781 10.888424524880781 -3.57978622529868e-18" Properties=species:S:1:pos:R:3 mixing_energy=0.03519003567660128 energy=-29.245990019347154 pbc="T T T"
Cu       0.00000000       0.00000000       0.00000000
Ni       1.81473742       1.81473742      -0.00000000
Cu       3.62947484       3.62947484      -0.00000000
Ni       5.44421226       5.44421226       0.00000000
Ni       7.25894968       7.25894968      -0.00000000
Ni       9.07368710       9.07368710       0.00000000
6
Lattice="1.8091173701940726e-18 1.8147374208134635 1.8147374208134635 3.629474841626927 1.8147374208134635 1.8147374208134635 10.888424524880781 10.888424524880781 -3.57978622529868e-18" Properties=species:S:1:pos:R:3 mixing_energy=0.022950043547055543 energy=-31.064223877776133 pbc="T T T"
Cu       0.00000000       0.00000000       0.00000000
Ni       1.81473742       1.81473742      -0.00000000
Ni       3.62947484       3.62947484      -0.00000000
Ni       5.44421226       5.44421226       0.00000000
Ni       7.25894968       7.25894968      -0.00000000
Ni       9.07368710       9.07368710       0.00000000
6
Lattice="1.8091173701940726e-18 1.8147374208134635 1.8147374208134635 5.444212262440391 3.629474841626927 1.8147374208134635 10.888424524880781 10.888424524880781 -3.57978622529868e-18" Properties=species:S:1:pos:R:3 mixing_energy=0.004363823306220353 energy=-24.19656557661433 pbc="T T T"
Cu       0.00000000       0.00000000       0.00000000
Cu       1.81473742       1.81473742      -0.00000000
Cu       3.62947484       3.62947484      -0.00000000
Cu       5.44421226       5.44421226      -0.00000000
Cu       7.25894968       7.25894968      -0.00000000
Ni       9.07368710       9.07368710      -0.00000000
6
Lattice="1.8091173701940726e-18 1.8147374208134635 1.8147374208134635 5.444212262440391 3.629474841626927 1.8147374208134635 10.888424524880781 10.888424524880781 -3.57978622529868e-18" Properties=species:S:1:pos:R:3 mixing_energy=0.014895049083518982 energy=-25.87817212760224 pbc="T T T"
Cu       0.00000000       0.00000000       0.00000000
Cu       1.81473742       1.81473742      -0.00000000
Cu       3.62947484       3.62947484      -0.00000000
Cu       5.44421226       5.44421226      -0.00000000
Ni       7.25894968       7.25894968      -0.00000000
Ni       9.07368710       9.07368710      -0.00000000
6
Lattice="1.8091173701940726e-18 1.8147374208134635 1.8147374208134635 5.444212262440391 3.629474841626927 1.8147374208134635 10.888424524880781 10.888424524880781 -3.57978622529868e-18" Properties=species:S:1:pos:R:3 mixing_energy=0.013765263901924563 energy=-25.884950838691807 pbc="T T T"
Cu       0.00000000       0.00000000       0.00000000
Cu       1.81473742       1.81473742      -0.00000000
Cu       3.62947484       3.62947484      -0.00000000
Ni       5.44421226       5.44421226      -0.00000000
Cu       7.25894968       7.25894968      -0.00000000
Ni       9.07368710       9.07368710      -0.00000000
6
Lattice="1.8091173701940726e-18 1.8147374208134635 1.8147374208134635 5.444212262440391 3.629474841626927 1.8147374208134635 10.888424524880781 10.888424524880781 -3.57978622529868e-18" Properties=species:S:1:pos:R:3 mixing_energy=0.024661700772307782 energy=-27.56436612312121 pbc="T T T"
Cu       0.00000000       0.00000000       0.00000000
Cu       1.81473742       1.81473742      -0.00000000
Cu       3.62947484       3.62947484      -0.00000000
Ni       5.44421226       5.44421226      -0.00000000
Ni       7.25894968       7.25894968      -0.00000000
Ni       9.07368710       9.07368710      -0.00000000
6
Lattice="1.8091173701940726e-18 1.8147374208134635 1.8147374208134635 5.444212262440391 3.629474841626927 1.8147374208134635 10.888424524880781 10.888424524880781 -3.57978622529868e-18" Properties=species:S:1:pos:R:3 mixing_energy=0.025687546556229773 energy=-27.55821104841768 pbc="T T T"
Cu       0.00000000       0.00000000       0.00000000
Cu       1.81473742       1.81473742      -0.00000000
Ni       3.62947484       3.62947484      -0.00000000
Cu       5.44421226       5.44421226      -0.00000000
Ni       7.25894968       7.25894968      -0.00000000
Ni       9.07368710       9.07368710      -0.00000000
6
Lattice="1.8091173701940726e-18 1.8147374208134635 1.8147374208134635 5.444212262440391 3.629474841626927 1.8147374208134635 10.888424524880781 10.888424524880781 -3.57978622529868e-18" Properties=species:S:1:pos:R:3 mixing_energy=0.029885921915662195 energy=-29.27781470191279 pbc="T T T"
Cu       0.00000000       0.00000000       0.00000000
Cu       1.81473742       1.81473742      -0.00000000
Ni       3.62947484       3.62947484      -0.00000000
Ni       5.44421226       5.44421226      -0.00000000
Ni       7.25894968       7.25894968      -0.00000000
Ni       9.07368710       9.07368710      -0.00000000
6
Lattice="1.8091173701940726e-18 1.8147374208134635 1.8147374208134635 5.444212262440391 3.629474841626927 1.8147374208134635 10.888424524880781 10.888424524880781 -3.57978622529868e-18" Properties=species:S:1:pos:R:3 mixing_energy=0.027587088335777683 energy=-29.291607703392096 pbc="T T T"
Cu       0.00000000       0.00000000       0.00000000
Ni       1.81473742       1.81473742      -0.00000000
Cu       3.62947484       3.62947484      -0.00000000
Ni       5.44421226       5.44421226      -0.00000000
Ni       7.25894968       7.25894968      -0.00000000
Ni       9.07368710       9.07368710      -0.00000000
6
Lattice="1.8091173701940726e-18 1.8147374208134635 1.8147374208134635 5.444212262440391 3.629474841626927 1.8147374208134635 10.888424524880781 10.888424524880781 -3.57978622529868e-18" Properties=species:S:1:pos:R:3 mixing_energy=0.021250235758011844 energy=-31.074422724510395 pbc="T T T"
Cu       0.00000000       0.00000000       0.00000000
Ni       1.81473742       1.81473742      -0.00000000
Ni       3.62947484       3.62947484      -0.00000000
Ni       5.44421226       5.44421226      -0.00000000
Ni       7.25894968       7.25894968      -0.00000000
Ni       9.07368710       9.07368710      -0.00000000
6
Lattice="1.8091173701940726e-18 1.8147374208134635 1.8147374208134635 7.258949683253854 5.444212262440391 1.8147374208134635 10.888424524880781 10.888424524880781 -3.57978622529868e-18" Properties=species:S:1:pos:R:3 mixing_energy=0.0056932771714242785 energy=-24.188588853423106 pbc="T T T"
Cu       0.00000000       0.00000000       0.00000000
Cu       1.81473742       1.81473742      -0.00000000
Cu       3.62947484       3.62947484      -0.00000000
Cu       5.44421226       5.44421226      -0.00000000
Cu       7.25894968       7.25894968      -0.00000000
Ni       9.07368710       9.07368710      -0.00000000
6
Lattice="1.8091173701940726e-18 1.8147374208134635 1.8147374208134635 7.258949683253854 5.444212262440391 1.8147374208134635 10.888424524880781 10.888424524880781 -3.57978622529868e-18" Properties=species:S:1:pos:R:3 mixing_energy=0.015451665677664947 energy=-25.874832428037365 pbc="T T T"
Cu       0.00000000       0.00000000       0.00000000
Cu       1.81473742       1.81473742      -0.00000000
Cu       3.62947484       3.62947484      -0.00000000
Cu       5.44421226       5.44421226      -0.00000000
Ni       7.25894968       7.25894968      -0.00000000
Ni       9.07368710       9.07368710      -0.00000000
6
Lattice="1.8091173701940726e-18 1.8147374208134635 1.8147374208134635 7.258949683253854 5.444212262440391 1.8147374208134635 10.888424524880781 10.888424524880781 -3.57978622529868e-18" Properties=species:S:1:pos:R:3 mixing_energy=0.02055894293680745 energy=-25.84418876448251 pbc="T T T"
Cu       0.00000000       0.00000000       0.00000000
Cu       1.81473742       1.81473742      -0.00000000
Cu       3.62947484       3.62947484      -0.00000000
Ni       5.44421226       5.44421226      -0.00000000
Cu       7.25894968       7.25894968      -0.00000000
Ni       9.07368710       9.07368710      -0.00000000
6
Lattice="1.8091173701940726e-18 1.8147374208134635 1.8147374208134635 7.258949683253854 5.444212262440391 1.8147374208134635 10.888424524880781 10.888424524880781 -3.57978622529868e-18" Properties=species:S:1:pos:R:3 mixing_energy=0.02822500586134839 energy=-27.542986292586967 pbc="T T T"
Cu       0.00000000       0.00000000       0.00000000
Cu       1.81473742       1.81473742      -0.00000000
Cu       3.62947484       3.62947484      -0.00000000
Ni       5.44421226       5.44421226      -0.00000000
Ni       7.25894968       7.25894968      -0.00000000
Ni       9.07368710       9.07368710      -0.00000000
6
Lattice="1.8091173701940726e-18 1.8147374208134635 1.8147374208134635 7.258949683253854 5.444212262440391 1.8147374208134635 10.888424524880781 10.888424524880781 -3.57978622529868e-18" Properties=species:S:1:pos:R:3 mixing_energy=0.023599622574237127 energy=-27.570738592309635 pbc="T T T"
Cu       0.00000000       0.00000000       0.00000000
Cu       1.81473742       1.81473742      -0.00000000
Ni       3.62947484       3.62947484      -0.00000000
Cu       5.44421226       5.44421226      -0.00000000
Ni       7.25894968       7.25894968      -0.00000000
Ni       9.07368710       9.07368710      -0.00000000
6
Lattice="1.8091173701940726e-18 1.8147374208134635 1.8147374208134635 7.258949683253854 5.444212262440391 1.8147374208134635 10.888424524880781 10.888424524880781 -3.57978622529868e-18" Properties=species:S:1:pos:R:3 mixing_energy=0.02889828212779773 energy=-29.283740540639975 pbc="T T T"
Cu       0.00000000       0.00000000       0.00000000
Cu       1.81473742       1.81473742      -0.00000000
Ni       3.62947484       3.62947484      -0.00000000
Ni       5.44421226       5.44421226      -0.00000000
Ni       7.25894968       7.25894968      -0.00000000
Ni       9.07368710       9.07368710      -0.00000000
6
Lattice="1.8091173701940726e-18 1.8147374208134635 1.8147374208134635 7.258949683253854 5.444212262440391 1.8147374208134635 10.888424524880781 10.888424524880781 -3.57978622529868e-18" Properties=species:S:1:pos:R:3 mixing_energy=0.03352131229614782 energy=-29.256002359629875 pbc="T T T"
Cu       0.00000000       0.00000000       0.00000000
Ni       1.81473742       1.81473742      -0.00000000
Cu       3.62947484       3.62947484      -0.00000000
Ni       5.44421226       5.44421226      -0.00000000
Ni       7.25894968       7.25894968      -0.00000000
Ni       9.07368710       9.07368710      -0.00000000
6
Lattice="1.8091173701940726e-18 1.8147374208134635 1.8147374208134635 7.258949683253854 5.444212262440391 1.8147374208134635 10.888424524880781 10.888424524880781 -3.57978622529868e-18" Properties=species:S:1:pos:R:3 mixing_energy=0.021573363290110354 energy=-31.072483959317804 pbc="T T T"
Cu       0.00000000       0.00000000       0.00000000
Ni       1.81473742       1.81473742      -0.00000000
Ni       3.62947484       3.62947484      -0.00000000
Ni       5.44421226       5.44421226      -0.00000000
Ni       7.25894968       7.25894968      -0.00000000
Ni       9.07368710       9.07368710      -0.00000000
6
Lattice="1.8091173701940726e-18 1.8147374208134635 1.8147374208134635 9.073687104067318 7.258949683253854 1.8147374208134635 10.888424524880781 10.888424524880781 -3.57978622529868e-18" Properties=species:S:1:pos:R:3 mixing_energy=0.005828977968335369 energy=-24.18777464864164 pbc="T T T"
Cu       0.00000000       0.00000000       0.00000000
Cu       1.81473742       1.81473742      -0.00000000
Cu       3.62947484       3.62947484      -0.00000000
Cu       5.44421226       5.44421226      -0.00000000
Cu       7.25894968       7.25894968      -0.00000000
Ni       9.07368710       9.07368710      -0.00000000
6
Lattice="1.8091173701940726e-18 1.8147374208134635 1.8147374208134635 9.073687104067318 7.258949683253854 1.8147374208134635 10.888424524880781 10.888424524880781 -3.57978622529868e-18" Properties=species:S:1:pos:R:3 mixing_energy=0.014159910707397158 energy=-25.882582957858972 pbc="T T T"
Cu       0.00000000       0.00000000       0.00000000
Cu       1.81473742       1.81473742      -0.00000000
Cu       3.62947484       3.62947484      -0.00000000
Cu       5.44421226       5.44421226      -0.00000000
Ni       7.25894968       7.25894968      -0.00000000
Ni       9.07368710       9.07368710      -0.00000000
6
Lattice="1.8091173701940726e-18 1.8147374208134635 1.8147374208134635 9.073687104067318 7.258949683253854 1.8147374208134635 10.888424524880781 10.888424524880781 -3.57978622529868e-18" Properties=species:S:1:pos:R:3 mixing_energy=0.014813611183842982 energy=-25.878660755000297 pbc="T T T"
Cu       0.00000000       0.00000000       0.00000000
Cu       1.81473742       1.81473742      -0.00000000
Cu       3.62947484       3.62947484      -0.00000000
Ni       5.44421226       5.44421226      -0.00000000
Cu       7.25894968       7.25894968      -0.00000000
Ni       9.07368710       9.07368710      -0.00000000
6
Lattice="1.8091173701940726e-18 1.8147374208134635 1.8147374208134635 9.073687104067318 7.258949683253854 1.8147374208134635 10.888424524880781 10.888424524880781 -3.57978622529868e-18" Properties=species:S:1:pos:R:3 mixing_energy=0.019344645201942495 energy=-27.596268456543402 pbc="T T T"
Cu       0.00000000       0.00000000       0.00000000
Cu       1.81473742       1.81473742      -0.00000000
Cu       3.62947484       3.62947484      -0.00000000
Ni       5.44421226       5.44421226      -0.00000000
Ni       7.25894968       7.25894968      -0.00000000
Ni       9.07368710       9.07368710      -0.00000000
6
Lattice="1.8091173701940726e-18 1.8147374208134635 1.8147374208134635 9.073687104067318 7.258949683253854 1.8147374208134635 10.888424524880781 10.888424524880781 -3.57978622529868e-18" Properties=species:S:1:pos:R:3 mixing_energy=0.030538957882227418 energy=-27.529102580461693 pbc="T T T"
Cu       0.00000000       0.00000000       0.00000000
Cu       1.81473742       1.81473742      -0.00000000
Ni       3.62947484       3.62947484      -0.00000000
Cu       5.44421226       5.44421226      -0.00000000
Ni       7.25894968       7.25894968      -0.00000000
Ni       9.07368710       9.07368710      -0.00000000
6
Lattice="1.8091173701940726e-18 1.8147374208134635 1.8147374208134635 9.073687104067318 7.258949683253854 1.8147374208134635 10.888424524880781 10.888424524880781 -3.57978622529868e-18" Properties=species:S:1:pos:R:3 mixing_energy=0.02683707017051577 energy=-29.296107812383667 pbc="T T T"
Cu       0.00000000       0.00000000       0.00000000
Cu       1.81473742       1.81473742      -0.00000000
Ni       3.62947484       3.62947484      -0.00000000
Ni       5.44421226       5.44421226      -0.00000000
Ni       7.25894968       7.25894968      -0.00000000
Ni       9.07368710       9.07368710      -0.00000000
6
Lattice="1.8091173701940726e-18 1.8147374208134635 1.8147374208134635 9.073687104067318 7.258949683253854 1.8147374208134635 10.888424524880781 10.888424524880781 -3.57978622529868e-18" Properties=species:S:1:pos:R:3 mixing_energy=0.02840464040556334 energy=-29.28670239097338 pbc="T T T"
Cu       0.00000000       0.00000000       0.00000000
Ni       1.81473742       1.81473742      -0.00000000
Cu       3.62947484       3.62947484      -0.00000000
Ni       5.44421226       5.44421226      -0.00000000
Ni       7.25894968       7.25894968      -0.00000000
Ni       9.07368710       9.07368710      -0.00000000
6
Lattice="1.8091173701940726e-18 1.8147374208134635 1.8147374208134635 9.073687104067318 7.258949683253854 1.8147374208134635 10.888424524880781 10.888424524880781 -3.57978622529868e-18" Properties=species:S:1:pos:R:3 mixing_energy=0.022427822716773942 energy=-31.067357202757822 pbc="T T T"
Cu       0.00000000       0.00000000       0.00000000
Ni       1.81473742       1.81473742      -0.00000000
Ni       3.62947484       3.62947484      -0.00000000
Ni       5.44421226       5.44421226      -0.00000000
Ni       7.25894968       7.25894968      -0.00000000
Ni       9.07368710       9.07368710      -0.00000000
6
Lattice="1.8091173701940726e-18 1.8147374208134635 1.8147374208134635 10.888424524880781 9.073687104067318 1.8147374208134635 10.888424524880781 10.888424524880781 -3.57978622529868e-18" Properties=species:S:1:pos:R:3 mixing_energy=0.007651275186165633 energy=-24.176840865334658 pbc="T T T"
Cu       0.00000000       0.00000000       0.00000000
Cu       1.81473742       1.81473742      -0.00000000
Cu       3.62947484       3.62947484      -0.00000000
Cu       5.44421226       5.44421226      -0.00000000
Cu       7.25894968       7.25894968      -0.00000000
Ni       9.07368710       9.07368710      -0.00000000
6
Lattice="1.8091173701940726e-18 1.8147374208134635 1.8147374208134635 10.888424524880781 9.073687104067318 1.8147374208134635 10.888424524880781 10.888424524880781 -3.57978622529868e-18" Properties=species:S:1:pos:R:3 mixing_energy=0.011226371897300838 energy=-25.90018419071955 pbc="T T T"
Cu       0.00000000       0.00000000       0.00000000
Cu       1.81473742       1.81473742      -0.00000000
Cu       3.62947484       3.62947484      -0.00000000
Cu       5.44421226       5.44421226      -0.00000000
Ni       7.25894968       7.25894968      -0.00000000
Ni       9.07368710       9.07368710      -0.00000000
6
Lattice="1.8091173701940726e-18 1.8147374208134635 1.8147374208134635 10.888424524880781 9.073687104067318 1.8147374208134635 10.888424524880781 10.888424524880781 -3.57978622529868e-18" Properties=species:S:1:pos:R:3 mixing_energy=0.019912321643404063 energy=-25.84806849224293 pbc="T T T"
Cu       0.00000000       0.00000000       0.00000000
Cu       1.81473742       1.81473742      -0.00000000
Cu       3.62947484       3.62947484      -0.00000000
Ni       5.44421226       5.44421226      -0.00000000
Cu       7.25894968       7.25894968      -0.00000000
Ni       9.07368710       9.07368710      -0.00000000
6
Lattice="1.8091173701940726e-18 1.8147374208134635 1.8147374208134635 10.888424524880781 9.073687104067318 1.8147374208134635 10.888424524880781 10.888424524880781 -3.57978622529868e-18" Properties=species:S:1:pos:R:3 mixing_energy=0.012743268611080438 energy=-27.635876716088575 pbc="T T T"
Cu       0.00000000       0.00000000       0.00000000
Cu       1.81473742       1.81473742      -0.00000000
Cu       3.62947484       3.62947484      -0.00000000
Ni       5.44421226       5.44421226      -0.00000000
Ni       7.25894968       7.25894968      -0.00000000
Ni       9.07368710       9.07368710      -0.00000000
6
Lattice="1.8091173701940726e-18 1.8147374208134635 1.8147374208134635 10.888424524880781 9.073687104067318 1.8147374208134635 10.888424524880781 10.888424524880781 -3.57978622529868e-18" Properties=species:S:1:pos:R:3 mixing_energy=0.022957272691035868 energy=-27.574592691608842 pbc="T T T"
Cu       0.00000000       0.00000000       0.00000000
Cu       1.81473742       1.81473742      -0.00000000
Ni       3.62947484       3.62947484      -0.00000000
Cu       5.44421226       5.44421226      -0.00000000
Ni       7.25894968       7.25894968      -0.00000000
Ni       9.07368710       9.07368710      -0.00000000
6
Lattice="1.8091173701940726e-18 1.8147374208134635 1.8147374208134635 10.888424524880781 9.073687104067318 1.8147374208134635 10.888424524880781 10.888424524880781 -3.57978622529868e-18" Properties=species:S:1:pos:R:3 mixing_energy=0.012338543444731323 energy=-29.383098972738374 pbc="T T T"
Cu       0.00000000       0.00000000       0.00000000
Cu       1.81473742       1.81473742      -0.00000000
Ni       3.62947484       3.62947484      -0.00000000
Ni       5.44421226       5.44421226      -0.00000000
Ni       7.25894968       7.25894968      -0.00000000
Ni       9.07368710       9.07368710      -0.00000000
6
Lattice="1.8091173701940726e-18 1.8147374208134635 1.8147374208134635 10.888424524880781 9.073687104067318 1.8147374208134635 10.888424524880781 10.888424524880781 -3.57978622529868e-18" Properties=species:S:1:pos:R:3 mixing_energy=0.0294819534921474 energy=-29.280238512453877 pbc="T T T"
Cu       0.00000000       0.00000000       0.00000000
Ni       1.81473742       1.81473742      -0.00000000
Cu       3.62947484       3.62947484      -0.00000000
Ni       5.44421226       5.44421226      -0.00000000
Ni       7.25894968       7.25894968      -0.00000000
Ni       9.07368710       9.07368710      -0.00000000
6
Lattice="1.8091173701940726e-18 1.8147374208134635 1.8147374208134635 10.888424524880781 9.073687104067318 1.8147374208134635 10.888424524880781 10.888424524880781 -3.57978622529868e-18" Properties=species:S:1:pos:R:3 mixing_energy=0.016017117664738716 energy=-31.105821433070034 pbc="T T T"
Cu       0.00000000       0.00000000       0.00000000
Ni       1.81473742       1.81473742      -0.00000000
Ni       3.62947484       3.62947484      -0.00000000
Ni       5.44421226       5.44421226      -0.00000000
Ni       7.25894968       7.25894968      -0.00000000
Ni       9.07368710       9.07368710      -0.00000000
6
Lattice="1.8147374208134635 3.629474841626927 1.8147374208134635 5.444212262440391 3.629474841626927 1.8147374208134635 10.888424524880781 10.888424524880781 -3.57978622529868e-18" Properties=species:S:1:pos:R:3 mixing_energy=0.006719845223357002 energy=-24.18242944511151 pbc="T T T"
Cu       0.00000000       0.00000000       0.00000000
Cu       1.81473742       1.81473742      -0.00000000
Cu       3.62947484       3.62947484      -0.00000000
Cu       5.44421226       5.44421226       0.00000000
Cu       7.25894968       7.25894968      -0.00000000
Ni       9.07368710       9.07368710       0.00000000
6
Lattice="1.8147374208134635 3.629474841626927 1.8147374208134635 5.444212262440391 3.629474841626927 1.8147374208134635 10.888424524880781 10.888424524880781 -3.57978622529868e-18" Properties=species:S:1:pos:R:3 mixing_energy=0.018544636182396285 energy=-25.856274605008977 pbc="T T T"
Cu       0.00000000       0.00000000       0.00000000
Cu       1.81473742       1.81473742      -0.00000000
Cu       3.62947484       3.62947484      -0.00000000
Cu       5.44421226       5.44421226       0.00000000
Ni       7.25894968       7.25894968      -0.00000000
Ni       9.07368710       9.07368710       0.00000000
6
Lattice="1.8147374208134635 3.629474841626927 1.8147374208134635 5.444212262440391 3.629474841626927 1.8147374208134635 10.888424524880781 10.888424524880781 -3.57978622529868e-18" Properties=species:S:1:pos:R:3 mixing_energy=0.02121598257085555 energy=-25.84024652667822 pbc="T T T"
Cu       0.00000000       0.00000000       0.00000000
Cu       1.81473742       1.81473742      -0.00000000
Cu       3.62947484       3.62947484      -0.00000000
Ni       5.44421226       5.44421226       0.00000000
Cu       7.25894968       7.25894968      -0.00000000
Ni       9.07368710       9.07368710       0.00000000
6
Lattice="1.8147374208134635 3.629474841626927 1.8147374208134635 5.444212262440391 3.629474841626927 1.8147374208134635 10.888424524880781 10.888424524880781 -3.57978622529868e-18" Properties=species:S:1:pos:R:3 mixing_energy=0.029484584901718236 energy=-27.535428818344748 pbc="T T T"
Cu       0.00000000       0.00000000       0.00000000
Cu       1.81473742       1.81473742      -0.00000000
Cu       3.62947484       3.62947484      -0.00000000
Ni       5.44421226       5.44421226       0.00000000
Ni       7.25894968       7.25894968      -0.00000000
Ni       9.07368710       9.07368710       0.00000000
6
Lattice="1.8147374208134635 3.629474841626927 1.8147374208134635 5.444212262440391 3.629474841626927 1.8147374208134635 10.888424524880781 10.888424524880781 -3.57978622529868e-18" Properties=species:S:1:pos:R:3 mixing_energy=0.03471157710206837 energy=-27.504066865142647 pbc="T T T"
Cu       0.00000000       0.00000000       0.00000000
Cu       1.81473742       1.81473742      -0.00000000
Ni       3.62947484       3.62947484      -0.00000000
Cu       5.44421226       5.44421226       0.00000000
Ni       7.25894968       7.25894968      -0.00000000
Ni       9.07368710       9.07368710       0.00000000
6
Lattice="1.8147374208134635 3.629474841626927 1.8147374208134635 5.444212262440391 3.629474841626927 1.8147374208134635 10.888424524880781 10.888424524880781 -3.57978622529868e-18" Properties=species:S:1:pos:R:3 mixing_energy=0.03441648768045683 energy=-29.25063130732402 pbc="T T T"
Cu       0.00000000       0.00000000       0.00000000
Cu       1.81473742       1.81473742      -0.00000000
Ni       3.62947484       3.62947484      -0.00000000
Ni       5.44421226       5.44421226       0.00000000
Ni       7.25894968       7.25894968      -0.00000000
Ni       9.07368710       9.07368710       0.00000000
6
Lattice="1.8147374208134635 3.629474841626927 1.8147374208134635 5.444212262440391 3.629474841626927 1.8147374208134635 10.888424524880781 10.888424524880781 -3.57978622529868e-18" Properties=species:S:1:pos:R:3 mixing_energy=0.0392846597493565 energy=-29.221422274910623 pbc="T T T"
Cu       0.00000000       0.00000000       0.00000000
Ni       1.81473742       1.81473742      -0.00000000
Cu       3.62947484       3.62947484      -0.00000000
Ni       5.44421226       5.44421226       0.00000000
Ni       7.25894968       7.25894968      -0.00000000
Ni       9.07368710       9.07368710       0.00000000
6
Lattice="1.8147374208134635 3.629474841626927 1.8147374208134635 5.444212262440391 3.629474841626927 1.8147374208134635 10.888424524880781 10.888424524880781 -3.57978622529868e-18" Properties=species:S:1:pos:R:3 mixing_energy=0.02688825907085975 energy=-31.040594584633308 pbc="T T T"
Cu       0.00000000       0.00000000       0.00000000
Ni       1.81473742       1.81473742      -0.00000000
Ni       3.62947484       3.62947484      -0.00000000
Ni       5.44421226       5.44421226       0.00000000
Ni       7.25894968       7.25894968      -0.00000000
Ni       9.07368710       9.07368710       0.00000000
6
Lattice="1.8147374208134635 3.629474841626927 1.8147374208134635 7.258949683253854 5.444212262440391 1.8147374208134635 10.888424524880781 10.888424524880781 -3.57978622529868e-18" Properties=species:S:1:pos:R:3 mixing_energy=0.00711437210245854 energy=-24.1800622838369 pbc="T T T"
Cu       0.00000000       0.00000000       0.00000000
Cu       1.81473742       1.81473742      -0.00000000
Cu       3.62947484       3.62947484      -0.00000000
Cu       5.44421226       5.44421226      -0.00000000
Cu       7.25894968       7.25894968      -0.00000000
Ni       9.07368710       9.07368710       0.00000000
6
Lattice="1.8147374208134635 3.629474841626927 1.8147374208134635 7.258949683253854 5.444212262440391 1.8147374208134635 10.888424524880781 10.888424524880781 -3.57978622529868e-18" Properties=species:S:1:pos:R:3 mixing_energy=0.021492989936747087 energy=-25.838584482482872 pbc="T T T"
Cu       0.00000000       0.00000000       0.00000000
Cu       1.81473742       1.81473742      -0.00000000
Cu       3.62947484       3.62947484      -0.00000000
Cu       5.44421226       5.44421226      -0.00000000
Ni       7.25894968       7.25894968      -0.00000000
Ni       9.07368710       9.07368710       0.00000000
6
Lattice="1.8147374208134635 3.629474841626927 1.8147374208134635 7.258949683253854 5.444212262440391 1.8147374208134635 10.888424524880781 10.888424524880781 -3.57978622529868e-18" Properties=species:S:1:pos:R:3 mixing_energy=0.016665772508797676 energy=-25.86754778705057 pbc="T T T"
Cu       0.00000000       0.00000000       0.00000000
Cu       1.81473742       1.81473742      -0.00000000
Cu       3.62947484       3.62947484      -0.00000000
Ni       5.44421226       5.44421226      -0.00000000
Cu       7.25894968       7.25894968      -0.00000000
Ni       9.07368710       9.07368710       0.00000000
6
Lattice="1.8147374208134635 3.629474841626927 1.8147374208134635 7.258949683253854 5.444212262440391 1.8147374208134635 10.888424524880781 10.888424524880781 -3.57978622529868e-18" Properties=species:S:1:pos:R:3 mixing_energy=0.0335192509081074 energy=-27.511220822306413 pbc="T T T"
Cu       0.00000000       0.00000000       0.00000000
Cu       1.81473742       1.81473742      -0.00000000
Cu       3.62947484       3.62947484      -0.00000000
Ni       5.44421226       5.44421226      -0.00000000
Ni       7.25894968       7.25894968      -0.00000000
Ni       9.07368710       9.07368710       0.00000000
6
Lattice="1.8147374208134635 3.629474841626927 1.8147374208134635 7.258949683253854 5.444212262440391 1.8147374208134635 10.888424524880781 10.888424524880781 -3.57978622529868e-18" Properties=species:S:1:pos:R:3 mixing_energy=0.03368717528649808 energy=-27.51021327603607 pbc="T T T"
Cu       0.00000000       0.00000000       0.00000000
Cu       1.81473742       1.81473742      -0.00000000
Ni       3.62947484       3.62947484      -0.00000000
Cu       5.44421226       5.44421226      -0.00000000
Ni       7.25894968       7.25894968      -0.00000000
Ni       9.07368710       9.07368710       0.00000000
6
Lattice="1.8147374208134635 3.629474841626927 1.8147374208134635 7.258949683253854 5.444212262440391 1.8147374208134635 10.888424524880781 10.888424524880781 -3.57978622529868e-18" Properties=species:S:1:pos:R:3 mixing_energy=0.038516797972883765 energy=-29.22602944556946 pbc="T T T"
Cu       0.00000000       0.00000000       0.00000000
Cu       1.81473742       1.81473742      -0.00000000
Ni       3.62947484       3.62947484      -0.00000000
Ni       5.44421226       5.44421226      -0.00000000
Ni       7.25894968       7.25894968      -0.00000000
Ni       9.07368710       9.07368710       0.00000000
6
Lattice="1.8147374208134635 3.629474841626927 1.8147374208134635 7.258949683253854 5.444212262440391 1.8147374208134635 10.888424524880781 10.888424524880781 -3.57978622529868e-18" Properties=species:S:1:pos:R:3 mixing_energy=0.033034985834854425 energy=-29.258920318397635 pbc="T T T"
Cu       0.00000000       0.00000000       0.00000000
Ni       1.81473742       1.81473742      -0.00000000
Cu       3.62947484       3.62947484      -0.00000000
Ni       5.44421226       5.44421226      -0.00000000
Ni       7.25894968       7.25894968      -0.00000000
Ni       9.07368710       9.07368710       0.00000000
6
Lattice="1.8147374208134635 3.629474841626927 1.8147374208134635 7.258949683253854 5.444212262440391 1.8147374208134635 10.888424524880781 10.888424524880781 -3.57978622529868e-18" Properties=species:S:1:pos:R:3 mixing_energy=0.02650065688107972 energy=-31.042920197771988 pbc="T T T"
Cu       0.00000000       0.00000000       0.00000000
Ni       1.81473742       1.81473742      -0.00000000
Ni       3.62947484       3.62947484      -0.00000000
Ni       5.44421226       5.44421226      -0.00000000
Ni       7.25894968       7.25894968      -0.00000000
Ni       9.07368710       9.07368710       0.00000000
6
Lattice="3.629474841626927 5.444212262440391 1.8147374208134635 5.444212262440391 3.629474841626927 1.8147374208134635 10.888424524880781 10.888424524880781 -3.57978622529868e-18" Properties=species:S:1:pos:R:3 mixing_energy=0.006045204088403218 energy=-24.186477291921232 pbc="T T T"
Cu       0.00000000       0.00000000       0.00000000
Cu       1.81473742       1.81473742       0.00000000
Cu       3.62947484       3.62947484       0.00000000
Cu       5.44421226       5.44421226      -0.00000000
Cu       7.25894968       7.25894968       0.00000000
Ni       9.07368710       9.07368710      -0.00000000
6
Lattice="3.629474841626927 5.444212262440391 1.8147374208134635 5.444212262440391 3.629474841626927 1.8147374208134635 10.888424524880781 10.888424524880781 -3.57978622529868e-18" Properties=species:S:1:pos:R:3 mixing_energy=0.021279374610098916 energy=-25.83986617444276 pbc="T T T"
Cu       0.00000000       0.00000000       0.00000000
Cu       1.81473742       1.81473742       0.00000000
Cu       3.62947484       3.62947484       0.00000000
Cu       5.44421226       5.44421226      -0.00000000
Ni       7.25894968       7.25894968       0.00000000
Ni       9.07368710       9.07368710      -0.00000000
6
Lattice="3.629474841626927 5.444212262440391 1.8147374208134635 5.444212262440391 3.629474841626927 1.8147374208134635 10.888424524880781 10.888424524880781 -3.57978622529868e-18" Properties=species:S:1:pos:R:3 mixing_energy=0.014792976181124295 energy=-25.87878456501661 pbc="T T T"
Cu       0.00000000       0.00000000       0.00000000
Cu       1.81473742       1.81473742       0.00000000
Cu       3.62947484       3.62947484       0.00000000
Ni       5.44421226       5.44421226      -0.00000000
Cu       7.25894968       7.25894968       0.00000000
Ni       9.07368710       9.07368710      -0.00000000
6
Lattice="3.629474841626927 5.444212262440391 1.8147374208134635 5.444212262440391 3.629474841626927 1.8147374208134635 10.888424524880781 10.888424524880781 -3.57978622529868e-18" Properties=species:S:1:pos:R:3 mixing_energy=0.033209048188086975 energy=-27.513082038626536 pbc="T T T"
Cu       0.00000000       0.00000000       0.00000000
Cu       1.81473742       1.81473742       0.00000000
Cu       3.62947484       3.62947484       0.00000000
Ni       5.44421226       5.44421226      -0.00000000
Ni       7.25894968       7.25894968       0.00000000
Ni       9.07368710       9.07368710      -0.00000000
6
Lattice="3.629474841626927 5.444212262440391 1.8147374208134635 5.444212262440391 3.629474841626927 1.8147374208134635 10.888424524880781 10.888424524880781 -3.57978622529868e-18" Properties=species:S:1:pos:R:3 mixing_energy=0.023536085803528433 energy=-27.571119812933887 pbc="T T T"
Cu       0.00000000       0.00000000       0.00000000
Cu       1.81473742       1.81473742       0.00000000
Ni       3.62947484       3.62947484       0.00000000
Cu       5.44421226       5.44421226      -0.00000000
Ni       7.25894968       7.25894968       0.00000000
Ni       9.07368710       9.07368710      -0.00000000
6
Lattice="3.629474841626927 5.444212262440391 1.8147374208134635 5.444212262440391 3.629474841626927 1.8147374208134635 10.888424524880781 10.888424524880781 -3.57978622529868e-18" Properties=species:S:1:pos:R:3 mixing_energy=0.0337608881613883 energy=-29.254564904438432 pbc="T T T"
Cu       0.00000000       0.00000000       0.00000000
Cu       1.81473742       1.81473742       0.00000000
Ni       3.62947484       3.62947484       0.00000000
Ni       5.44421226       5.44421226      -0.00000000
Ni       7.25894968       7.25894968       0.00000000
Ni       9.07368710       9.07368710      -0.00000000
6
Lattice="3.629474841626927 5.444212262440391 1.8147374208134635 5.444212262440391 3.629474841626927 1.8147374208134635 10.888424524880781 10.888424524880781 -3.57978622529868e-18" Properties=species:S:1:pos:R:3 mixing_energy=0.028093603463423378 energy=-29.28856861262622 pbc="T T T"
Cu       0.00000000       0.00000000       0.00000000
Ni       1.81473742       1.81473742       0.00000000
Cu       3.62947484       3.62947484       0.00000000
Ni       5.44421226       5.44421226      -0.00000000
Ni       7.25894968       7.25894968       0.00000000
Ni       9.07368710       9.07368710      -0.00000000
6
Lattice="3.629474841626927 5.444212262440391 1.8147374208134635 5.444212262440391 3.629474841626927 1.8147374208134635 10.888424524880781 10.888424524880781 -3.57978622529868e-18" Properties=species:S:1:pos:R:3 mixing_energy=0.02161760499793471 energy=-31.072218509070858 pbc="T T T"
Cu       0.00000000       0.00000000       0.00000000
Ni       1.81473742       1.81473742       0.00000000
Ni       3.62947484       3.62947484       0.00000000
Ni       5.44421226       5.44421226      -0.00000000
Ni       7.25894968       7.25894968       0.00000000
Ni       9.07368710       9.07368710      -0.00000000
6
Lattice="3.629474841626927 5.444212262440391 1.8147374208134635 7.258949683253854 5.444212262440391 1.8147374208134635 10.888424524880781 10.888424524880781 -3.57978622529868e-18" Properties=species:S:1:pos:R:3 mixing_energy=0.0063255209315925915 energy=-24.184795390862096 pbc="T T T"
Cu       0.00000000       0.00000000       0.00000000
Cu       1.81473742       1.81473742      -0.00000000
Cu       3.62947484       3.62947484      -0.00000000
Cu       5.44421226       5.44421226      -0.00000000
Cu       7.25894968       7.25894968      -0.00000000
Ni       9.07368710       9.07368710      -0.00000000
6
Lattice="3.629474841626927 5.444212262440391 1.8147374208134635 7.258949683253854 5.444212262440391 1.8147374208134635 10.888424524880781 10.888424524880781 -3.57978622529868e-18" Properties=species:S:1:pos:R:3 mixing_energy=0.021923981565234563 energy=-25.835998532711947 pbc="T T T"
Cu       0.00000000       0.00000000       0.00000000
Cu       1.81473742       1.81473742      -0.00000000
Cu       3.62947484       3.62947484      -0.00000000
Cu       5.44421226       5.44421226      -0.00000000
Ni       7.25894968       7.25894968      -0.00000000
Ni       9.07368710       9.07368710      -0.00000000
6
Lattice="3.629474841626927 5.444212262440391 1.8147374208134635 7.258949683253854 5.444212262440391 1.8147374208134635 10.888424524880781 10.888424524880781 -3.57978622529868e-18" Properties=species:S:1:pos:R:3 mixing_energy=0.020249464627976426 energy=-25.846045634335496 pbc="T T T"
Cu       0.00000000       0.00000000       0.00000000
Cu       1.81473742       1.81473742      -0.00000000
Cu       3.62947484       3.62947484      -0.00000000
Ni       5.44421226       5.44421226      -0.00000000
Cu       7.25894968       7.25894968      -0.00000000
Ni       9.07368710       9.07368710      -0.00000000
6
Lattice="3.629474841626927 5.444212262440391 1.8147374208134635 7.258949683253854 5.444212262440391 1.8147374208134635 10.888424524880781 10.888424524880781 -3.57978622529868e-18" Properties=species:S:1:pos:R:3 mixing_energy=0.0374689381349711 energy=-27.48752269894523 pbc="T T T"
Cu       0.00000000       0.00000000       0.00000000
Cu       1.81473742       1.81473742      -0.00000000
Cu       3.62947484       3.62947484      -0.00000000
Ni       5.44421226       5.44421226      -0.00000000
Ni       7.25894968       7.25894968      -0.00000000
Ni       9.07368710       9.07368710      -0.00000000
6
Lattice="3.629474841626927 5.444212262440391 1.8147374208134635 7.258949683253854 5.444212262440391 1.8147374208134635 10.888424524880781 10.888424524880781 -3.57978622529868e-18" Properties=species:S:1:pos:R:3 mixing_energy=0.029834479731770003 energy=-27.533329449364437 pbc="T T T"
Cu       0.00000000       0.00000000       0.00000000
Cu       1.81473742       1.81473742      -0.00000000
Ni       3.62947484       3.62947484      -0.00000000
Cu       5.44421226       5.44421226      -0.00000000
Ni       7.25894968       7.25894968      -0.00000000
Ni       9.07368710       9.07368710      -0.00000000
6
Lattice="3.629474841626927 5.444212262440391 1.8147374208134635 7.258949683253854 5.444212262440391 1.8147374208134635 10.888424524880781 10.888424524880781 -3.57978622529868e-18" Properties=species:S:1:pos:R:3 mixing_energy=0.037929991775916605 energy=-29.229550282751262 pbc="T T T"
Cu       0.00000000       0.00000000       0.00000000
Cu       1.81473742       1.81473742      -0.00000000
Ni       3.62947484       3.62947484      -0.00000000
Ni       5.44421226       5.44421226      -0.00000000
Ni       7.25894968       7.25894968      -0.00000000
Ni       9.07368710       9.07368710      -0.00000000
6
Lattice="3.629474841626927 5.444212262440391 1.8147374208134635 7.258949683253854 5.444212262440391 1.8147374208134635 10.888424524880781 10.888424524880781 -3.57978622529868e-18" Properties=species:S:1:pos:R:3 mixing_energy=0.03990845778384925 energy=-29.217679486703666 pbc="T T T"
Cu       0.00000000       0.00000000       0.00000000
Ni       1.81473742       1.81473742      -0.00000000
Cu       3.62947484       3.62947484      -0.00000000
Ni       5.44421226       5.44421226      -0.00000000
Ni       7.25894968       7.25894968      -0.00000000
Ni       9.07368710       9.07368710      -0.00000000
6
Lattice="3.629474841626927 5.444212262440391 1.8147374208134635 7.258949683253854 5.444212262440391 1.8147374208134635 10.888424524880781 10.888424524880781 -3.57978622529868e-18" Properties=species:S:1:pos:R:3 mixing_energy=0.02656762683334198 energy=-31.042518378058414 pbc="T T T"
Cu       0.00000000       0.00000000       0.00000000
Ni       1.81473742       1.81473742      -0.00000000
Ni       3.62947484       3.62947484      -0.00000000
Ni       5.44421226       5.44421226      -0.00000000
Ni       7.25894968       7.25894968      -0.00000000
Ni       9.07368710       9.07368710      -0.00000000
7
Lattice="1.8091173701940726e-18 1.8147374208134635 1.8147374208134635 1.8147374208134635 8.656940495179077e-18 1.8147374208134635 12.703161945694244 12.703161945694244 -4.1764172628484596e-18" Properties=species:S:1:pos:R:3 mixing_energy=0.00525925507277122 energy=-27.93225949940891 pbc="T T T"
Cu       0.00000000       0.00000000       0.00000000
Cu       1.81473742       1.81473742      -0.00000000
Cu       3.62947484       3.62947484      -0.00000000
Cu       5.44421226       5.44421226      -0.00000000
Cu       7.25894968       7.25894968      -0.00000000
Cu       9.07368710       9.07368710      -0.00000000
Ni      10.88842452      10.88842452      -0.00000000
7
Lattice="1.8091173701940726e-18 1.8147374208134635 1.8147374208134635 1.8147374208134635 8.656940495179077e-18 1.8147374208134635 12.703161945694244 12.703161945694244 -4.1764172628484596e-18" Properties=species:S:1:pos:R:3 mixing_energy=0.011308007639532594 energy=-29.634712137093285 pbc="T T T"
Cu       0.00000000       0.00000000       0.00000000
Cu       1.81473742       1.81473742      -0.00000000
Cu       3.62947484       3.62947484      -0.00000000
Cu       5.44421226       5.44421226      -0.00000000
Cu       7.25894968       7.25894968      -0.00000000
Ni       9.07368710       9.07368710      -0.00000000
Ni      10.88842452      10.88842452      -0.00000000
7
Lattice="1.8091173701940726e-18 1.8147374208134635 1.8147374208134635 1.8147374208134635 8.656940495179077e-18 1.8147374208134635 12.703161945694244 12.703161945694244 -4.1764172628484596e-18" Properties=species:S:1:pos:R:3 mixing_energy=0.011489790718741486 energy=-29.633439655538822 pbc="T T T"
Cu       0.00000000       0.00000000       0.00000000
Cu       1.81473742       1.81473742      -0.00000000
Cu       3.62947484       3.62947484      -0.00000000
Cu       5.44421226       5.44421226      -0.00000000
Ni       7.25894968       7.25894968      -0.00000000
Cu       9.07368710       9.07368710      -0.00000000
Ni      10.88842452      10.88842452      -0.00000000
7
Lattice="1.8091173701940726e-18 1.8147374208134635 1.8147374208134635 1.8147374208134635 8.656940495179077e-18 1.8147374208134635 12.703161945694244 12.703161945694244 -4.1764172628484596e-18" Properties=species:S:1:pos:R:3 mixing_energy=0.011709187220231192 energy=-31.376697785680097 pbc="T T T"
Cu       0.00000000       0.00000000       0.00000000
Cu       1.81473742       1.81473742      -0.00000000
Cu       3.62947484       3.62947484      -0.00000000
Cu       5.44421226       5.44421226      -0.00000000
Ni       7.25894968       7.25894968      -0.00000000
Ni       9.07368710       9.07368710      -0.00000000
Ni      10.88842452      10.88842452      -0.00000000
7
Lattice="1.8091173701940726e-18 1.8147374208134635 1.8147374208134635 1.8147374208134635 8.656940495179077e-18 1.8147374208134635 12.703161945694244 12.703161945694244 -4.1764172628484596e-18" Properties=species:S:1:pos:R:3 mixing_energy=0.00876911312852892 energy=-29.65248439867031 pbc="T T T"
Cu       0.00000000       0.00000000       0.00000000
Cu       1.81473742       1.81473742      -0.00000000
Cu       3.62947484       3.62947484      -0.00000000
Ni       5.44421226       5.44421226      -0.00000000
Cu       7.25894968       7.25894968      -0.00000000
Cu       9.07368710       9.07368710      -0.00000000
Ni      10.88842452      10.88842452      -0.00000000
7
Lattice="1.8091173701940726e-18 1.8147374208134635 1.8147374208134635 1.8147374208134635 8.656940495179077e-18 1.8147374208134635 12.703161945694244 12.703161945694244 -4.1764172628484596e-18" Properties=species:S:1:pos:R:3 mixing_energy=0.015633929216060643 energy=-31.34922459170929 pbc="T T T"
Cu       0.00000000       0.00000000       0.00000000
Cu       1.81473742       1.81473742      -0.00000000
Cu       3.62947484       3.62947484      -0.00000000
Ni       5.44421226       5.44421226      -0.00000000
Cu       7.25894968       7.25894968      -0.00000000
Ni       9.07368710       9.07368710      -0.00000000
Ni      10.88842452      10.88842452      -0.00000000
7
Lattice="1.8091173701940726e-18 1.8147374208134635 1.8147374208134635 1.8147374208134635 8.656940495179077e-18 1.8147374208134635 12.703161945694244 12.703161945694244 -4.1764172628484596e-18" Properties=species:S:1:pos:R:3 mixing_energy=0.010549598337194408 energy=-33.12960881351306 pbc="T T T"
Cu       0.00000000       0.00000000       0.00000000
Cu       1.81473742       1.81473742      -0.00000000
Cu       3.62947484       3.62947484      -0.00000000
Ni       5.44421226       5.44421226      -0.00000000
Ni       7.25894968       7.25894968      -0.00000000
Ni       9.07368710       9.07368710      -0.00000000
Ni      10.88842452      10.88842452      -0.00000000
7
Lattice="1.8091173701940726e-18 1.8147374208134635 1.8147374208134635 1.8147374208134635 8.656940495179077e-18 1.8147374208134635 12.703161945694244 12.703161945694244 -4.1764172628484596e-18" Properties=species:S:1:pos:R:3 mixing_energy=0.013566147218366353 energy=-31.36369906569315 pbc="T T T"
Cu       0.00000000       0.00000000       0.00000000
Cu       1.81473742       1.81473742      -0.00000000
Ni       3.62947484       3.62947484      -0.00000000
Cu       5.44421226       5.44421226      -0.00000000
Cu       7.25894968       7.25894968      -0.00000000
Ni       9.07368710       9.07368710      -0.00000000
Ni      10.88842452      10.88842452      -0.00000000
7
Lattice="1.8091173701940726e-18 1.8147374208134635 1.8147374208134635 1.8147374208134635 8.656940495179077e-18 1.8147374208134635 12.703161945694244 12.703161945694244 -4.1764172628484596e-18" Properties=species:S:1:pos:R:3 mixing_energy=0.016864101345424234 energy=-31.340613386803746 pbc="T T T"
Cu       0.00000000       0.00000000       0.00000000
Cu       1.81473742       1.81473742      -0.00000000
Ni       3.62947484       3.62947484      -0.00000000
Cu       5.44421226       5.44421226      -0.00000000
Ni       7.25894968       7.25894968      -0.00000000
Cu       9.07368710       9.07368710      -0.00000000
Ni      10.88842452      10.88842452      -0.00000000
7
Lattice="1.8091173701940726e-18 1.8147374208134635 1.8147374208134635 1.8147374208134635 8.656940495179077e-18 1.8147374208134635 12.703161945694244 12.703161945694244 -4.1764172628484596e-18" Properties=species:S:1:pos:R:3 mixing_energy=0.015648449672930553 energy=-33.093916854162906 pbc="T T T"
Cu       0.00000000       0.00000000       0.00000000
Cu       1.81473742       1.81473742      -0.00000000
Ni       3.62947484       3.62947484      -0.00000000
Cu       5.44421226       5.44421226      -0.00000000
Ni       7.25894968       7.25894968      -0.00000000
Ni       9.07368710       9.07368710      -0.00000000
Ni      10.88842452      10.88842452      -0.00000000
7
Lattice="1.8091173701940726e-18 1.8147374208134635 1.8147374208134635 1.8147374208134635 8.656940495179077e-18 1.8147374208134635 12.703161945694244 12.703161945694244 -4.1764172628484596e-18" Properties=species:S:1:pos:R:3 mixing_energy=0.019028148836419234 energy=-33.070258960018485 pbc="T T T"
Cu       0.00000000       0.00000000       0.00000000
Cu       1.81473742       1.81473742      -0.00000000
Ni       3.62947484       3.62947484      -0.00000000
Ni       5.44421226       5.44421226      -0.00000000
Cu       7.25894968       7.25894968      -0.00000000
Ni       9.07368710       9.07368710      -0.00000000
Ni      10.88842452      10.88842452      -0.00000000
7
Lattice="1.8091173701940726e-18 1.8147374208134635 1.8147374208134635 1.8147374208134635 8.656940495179077e-18 1.8147374208134635 12.703161945694244 12.703161945694244 -4.1764172628484596e-18" Properties=species:S:1:pos:R:3 mixing_energy=0.009371020594234178 energy=-34.882652763365485 pbc="T T T"
Cu       0.00000000       0.00000000       0.00000000
Cu       1.81473742       1.81473742      -0.00000000
Ni       3.62947484       3.62947484      -0.00000000
Ni       5.44421226       5.44421226      -0.00000000
Ni       7.25894968       7.25894968      -0.00000000
Ni       9.07368710       9.07368710      -0.00000000
Ni      10.88842452      10.88842452      -0.00000000
7
Lattice="1.8091173701940726e-18 1.8147374208134635 1.8147374208134635 1.8147374208134635 8.656940495179077e-18 1.8147374208134635 12.703161945694244 12.703161945694244 -4.1764172628484596e-18" Properties=species:S:1:pos:R:3 mixing_energy=0.022562106755647245 energy=-33.04552125458389 pbc="T T T"
Cu       0.00000000       0.00000000       0.00000000
Ni       1.81473742       1.81473742      -0.00000000
Cu       3.62947484       3.62947484      -0.00000000
Ni       5.44421226       5.44421226      -0.00000000
Cu       7.25894968       7.25894968      -0.00000000
Ni       9.07368710       9.07368710      -0.00000000
Ni      10.88842452      10.88842452      -0.00000000
7
Lattice="1.8091173701940726e-18 1.8147374208134635 1.8147374208134635 1.8147374208134635 8.656940495179077e-18 1.8147374208134635 12.703161945694244 12.703161945694244 -4.1764172628484596e-18" Properties=species:S:1:pos:R:3 mixing_energy=0.01683018654102142 energy=-34.830438601737974 pbc="T T T"
Cu       0.00000000       0.00000000       0.00000000
Ni       1.81473742       1.81473742      -0.00000000
Cu       3.62947484       3.62947484      -0.00000000
Ni       5.44421226       5.44421226      -0.00000000
Ni       7.25894968       7.25894968      -0.00000000
Ni       9.07368710       9.07368710      -0.00000000
Ni      10.88842452      10.88842452      -0.00000000
7
Lattice="1.8091173701940726e-18 1.8147374208134635 1.8147374208134635 1.8147374208134635 8.656940495179077e-18 1.8147374208134635 12.703161945694244 12.703161945694244 -4.1764172628484596e-18" Properties=species:S:1:pos:R:3 mixing_energy=0.020449294683017576 energy=-34.805104844744 pbc="T T T"
Cu       0.00000000       0.00000000       0.00000000
Ni       1.81473742       1.81473742      -0.00000000
Ni       3.62947484       3.62947484      -0.00000000
Cu       5.44421226       5.44421226      -0.00000000
Ni       7.25894968       7.25894968      -0.00000000
Ni       9.07368710       9.07368710      -0.00000000
Ni      10.88842452      10.88842452      -0.00000000
7
Lattice="1.8091173701940726e-18 1.8147374208134635 1.8147374208134635 1.8147374208134635 8.656940495179077e-18 1.8147374208134635 12.703161945694244 12.703161945694244 -4.1764172628484596e-18" Properties=species:S:1:pos:R:3 mixing_energy=0.010307056020159118 energy=-36.620894421035715 pbc="T T T"
Cu       0.00000000       0.00000000       0.00000000
Ni       1.81473742       1.81473742      -0.00000000
Ni       3.62947484       3.62947484      -0.00000000
Ni       5.44421226       5.44421226      -0.00000000
Ni       7.25894968       7.25894968      -0.00000000
Ni       9.07368710       9.07368710      -0.00000000
Ni      10.88842452      10.88842452      -0.00000000
7
Lattice="1.8091173701940726e-18 1.8147374208134635 1.8147374208134635 3.629474841626927 1.8147374208134635 1.8147374208134635 12.703161945694244 12.703161945694244 -4.1764172628484596e-18" Properties=species:S:1:pos:R:3 mixing_energy=0.006506206059646834 energy=-27.92353084250078 pbc="T T T"
Cu       0.00000000       0.00000000       0.00000000
Cu       1.81473742       1.81473742      -0.00000000
Cu       3.62947484       3.62947484      -0.00000000
Cu       5.44421226       5.44421226      -0.00000000
Cu       7.25894968       7.25894968      -0.00000000
Cu       9.07368710       9.07368710      -0.00000000
Ni      10.88842452      10.88842452      -0.00000000
7
Lattice="1.8091173701940726e-18 1.8147374208134635 1.8147374208134635 3.629474841626927 1.8147374208134635 1.8147374208134635 12.703161945694244 12.703161945694244 -4.1764172628484596e-18" Properties=species:S:1:pos:R:3 mixing_energy=0.01230742155081518 energy=-29.627716239714307 pbc="T T T"
Cu       0.00000000       0.00000000       0.00000000
Cu       1.81473742       1.81473742      -0.00000000
Cu       3.62947484       3.62947484      -0.00000000
Cu       5.44421226       5.44421226      -0.00000000
Cu       7.25894968       7.25894968      -0.00000000
Ni       9.07368710       9.07368710      -0.00000000
Ni      10.88842452      10.88842452      -0.00000000
7
Lattice="1.8091173701940726e-18 1.8147374208134635 1.8147374208134635 3.629474841626927 1.8147374208134635 1.8147374208134635 12.703161945694244 12.703161945694244 -4.1764172628484596e-18" Properties=species:S:1:pos:R:3 mixing_energy=0.017945305779106135 energy=-29.58825105011627 pbc="T T T"
Cu       0.00000000       0.00000000       0.00000000
Cu       1.81473742       1.81473742      -0.00000000
Cu       3.62947484       3.62947484      -0.00000000
Cu       5.44421226       5.44421226      -0.00000000
Ni       7.25894968       7.25894968      -0.00000000
Cu       9.07368710       9.07368710      -0.00000000
Ni      10.88842452      10.88842452      -0.00000000
7
Lattice="1.8091173701940726e-18 1.8147374208134635 1.8147374208134635 3.629474841626927 1.8147374208134635 1.8147374208134635 12.703161945694244 12.703161945694244 -4.1764172628484596e-18" Properties=species:S:1:pos:R:3 mixing_energy=0.01678636877656814 energy=-31.34115751478574 pbc="T T T"
Cu       0.00000000       0.00000000       0.00000000
Cu       1.81473742       1.81473742      -0.00000000
Cu       3.62947484       3.62947484      -0.00000000
Cu       5.44421226       5.44421226      -0.00000000
Ni       7.25894968       7.25894968      -0.00000000
Ni       9.07368710       9.07368710      -0.00000000
Ni      10.88842452      10.88842452      -0.00000000
7
Lattice="1.8091173701940726e-18 1.8147374208134635 1.8147374208134635 3.629474841626927 1.8147374208134635 1.8147374208134635 12.703161945694244 12.703161945694244 -4.1764172628484596e-18" Properties=species:S:1:pos:R:3 mixing_energy=0.01688027300471998 energy=-29.595706279536973 pbc="T T T"
Cu       0.00000000       0.00000000       0.00000000
Cu       1.81473742       1.81473742      -0.00000000
Cu       3.62947484       3.62947484      -0.00000000
Ni       5.44421226       5.44421226      -0.00000000
Cu       7.25894968       7.25894968      -0.00000000
Cu       9.07368710       9.07368710      -0.00000000
Ni      10.88842452      10.88842452      -0.00000000
7
Lattice="1.8091173701940726e-18 1.8147374208134635 1.8147374208134635 3.629474841626927 1.8147374208134635 1.8147374208134635 12.703161945694244 12.703161945694244 -4.1764172628484596e-18" Properties=species:S:1:pos:R:3 mixing_energy=0.023427990962517242 energy=-31.294666159484095 pbc="T T T"
Cu       0.00000000       0.00000000       0.00000000
Cu       1.81473742       1.81473742      -0.00000000
Cu       3.62947484       3.62947484      -0.00000000
Ni       5.44421226       5.44421226      -0.00000000
Cu       7.25894968       7.25894968      -0.00000000
Ni       9.07368710       9.07368710      -0.00000000
Ni      10.88842452      10.88842452      -0.00000000
7
Lattice="1.8091173701940726e-18 1.8147374208134635 1.8147374208134635 3.629474841626927 1.8147374208134635 1.8147374208134635 12.703161945694244 12.703161945694244 -4.1764172628484596e-18" Properties=species:S:1:pos:R:3 mixing_energy=0.01768006452107329 energy=-33.07969555022591 pbc="T T T"
Cu       0.00000000       0.00000000       0.00000000
Cu       1.81473742       1.81473742      -0.00000000
Cu       3.62947484       3.62947484      -0.00000000
Ni       5.44421226       5.44421226      -0.00000000
Ni       7.25894968       7.25894968      -0.00000000
Ni       9.07368710       9.07368710      -0.00000000
Ni      10.88842452      10.88842452      -0.00000000
7
Lattice="1.8091173701940726e-18 1.8147374208134635 1.8147374208134635 3.629474841626927 1.8147374208134635 1.8147374208134635 12.703161945694244 12.703161945694244 -4.1764172628484596e-18" Properties=species:S:1:pos:R:3 mixing_energy=0.025711378289061417 energy=-31.278682448198285 pbc="T T T"
Cu       0.00000000       0.00000000       0.00000000
Cu       1.81473742       1.81473742      -0.00000000
Ni       3.62947484       3.62947484      -0.00000000
Cu       5.44421226       5.44421226      -0.00000000
Cu       7.25894968       7.25894968      -0.00000000
Ni       9.07368710       9.07368710      -0.00000000
Ni      10.88842452      10.88842452      -0.00000000
7
Lattice="1.8091173701940726e-18 1.8147374208134635 1.8147374208134635 3.629474841626927 1.8147374208134635 1.8147374208134635 12.703161945694244 12.703161945694244 -4.1764172628484596e-18" Properties=species:S:1:pos:R:3 mixing_energy=0.03273645631361128 energy=-31.229506902026436 pbc="T T T"
Cu       0.00000000       0.00000000       0.00000000
Cu       1.81473742       1.81473742      -0.00000000
Ni       3.62947484       3.62947484      -0.00000000
Cu       5.44421226       5.44421226      -0.00000000
Ni       7.25894968       7.25894968      -0.00000000
Cu       9.07368710       9.07368710      -0.00000000
Ni      10.88842452      10.88842452      -0.00000000
7
Lattice="1.8091173701940726e-18 1.8147374208134635 1.8147374208134635 3.629474841626927 1.8147374208134635 1.8147374208134635 12.703161945694244 12.703161945694244 -4.1764172628484596e-18" Properties=species:S:1:pos:R:3 mixing_energy=0.03021547046332326 energy=-32.99194770863016 pbc="T T T"
Cu       0.00000000       0.00000000       0.00000000
Cu       1.81473742       1.81473742      -0.00000000
Ni       3.62947484       3.62947484      -0.00000000
Cu       5.44421226       5.44421226      -0.00000000
Ni       7.25894968       7.25894968      -0.00000000
Ni       9.07368710       9.07368710      -0.00000000
Ni      10.88842452      10.88842452      -0.00000000
7
Lattice="1.8091173701940726e-18 1.8147374208134635 1.8147374208134635 3.629474841626927 1.8147374208134635 1.8147374208134635 12.703161945694244 12.703161945694244 -4.1764172628484596e-18" Properties=species:S:1:pos:R:3 mixing_energy=0.03133516009748811 energy=-32.984109881191 pbc="T T T"
Cu       0.00000000       0.00000000       0.00000000
Cu       1.81473742       1.81473742      -0.00000000
Ni       3.62947484       3.62947484      -0.00000000
Ni       5.44421226       5.44421226      -0.00000000
Cu       7.25894968       7.25894968      -0.00000000
Ni       9.07368710       9.07368710      -0.00000000
Ni      10.88842452      10.88842452      -0.00000000
7
Lattice="1.8091173701940726e-18 1.8147374208134635 1.8147374208134635 3.629474841626927 1.8147374208134635 1.8147374208134635 12.703161945694244 12.703161945694244 -4.1764172628484596e-18" Properties=species:S:1:pos:R:3 mixing_energy=0.020102412648675738 energy=-34.807533018984394 pbc="T T T"
Cu       0.00000000       0.00000000       0.00000000
Cu       1.81473742       1.81473742      -0.00000000
Ni       3.62947484       3.62947484      -0.00000000
Ni       5.44421226       5.44421226      -0.00000000
Ni       7.25894968       7.25894968      -0.00000000
Ni       9.07368710       9.07368710      -0.00000000
Ni      10.88842452      10.88842452      -0.00000000
7
Lattice="1.8091173701940726e-18 1.8147374208134635 1.8147374208134635 3.629474841626927 1.8147374208134635 1.8147374208134635 12.703161945694244 12.703161945694244 -4.1764172628484596e-18" Properties=species:S:1:pos:R:3 mixing_energy=0.03845303490130395 energy=-32.93428475756429 pbc="T T T"
Cu       0.00000000       0.00000000       0.00000000
Ni       1.81473742       1.81473742      -0.00000000
Cu       3.62947484       3.62947484      -0.00000000
Ni       5.44421226       5.44421226      -0.00000000
Cu       7.25894968       7.25894968      -0.00000000
Ni       9.07368710       9.07368710      -0.00000000
Ni      10.88842452      10.88842452      -0.00000000
7
Lattice="1.8091173701940726e-18 1.8147374208134635 1.8147374208134635 3.629474841626927 1.8147374208134635 1.8147374208134635 12.703161945694244 12.703161945694244 -4.1764172628484596e-18" Properties=species:S:1:pos:R:3 mixing_energy=0.031289703315516296 energy=-34.72922198431651 pbc="T T T"
Cu       0.00000000       0.00000000       0.00000000
Ni       1.81473742       1.81473742      -0.00000000
Cu       3.62947484       3.62947484      -0.00000000
Ni       5.44421226       5.44421226      -0.00000000
Ni       7.25894968       7.25894968      -0.00000000
Ni       9.07368710       9.07368710      -0.00000000
Ni      10.88842452      10.88842452      -0.00000000
7
Lattice="1.8091173701940726e-18 1.8147374208134635 1.8147374208134635 3.629474841626927 1.8147374208134635 1.8147374208134635 12.703161945694244 12.703161945694244 -4.1764172628484596e-18" Properties=species:S:1:pos:R:3 mixing_energy=0.03471215778768461 energy=-34.70526480301133 pbc="T T T"
Cu       0.00000000       0.00000000       0.00000000
Ni       1.81473742       1.81473742      -0.00000000
Ni       3.62947484       3.62947484      -0.00000000
Cu       5.44421226       5.44421226      -0.00000000
Ni       7.25894968       7.25894968      -0.00000000
Ni       9.07368710       9.07368710      -0.00000000
Ni      10.88842452      10.88842452      -0.00000000
7
Lattice="1.8091173701940726e-18 1.8147374208134635 1.8147374208134635 3.629474841626927 1.8147374208134635 1.8147374208134635 12.703161945694244 12.703161945694244 -4.1764172628484596e-18" Properties=species:S:1:pos:R:3 mixing_energy=0.019628375232717384 energy=-36.5556451865478 pbc="T T T"
Cu       0.00000000       0.00000000       0.00000000
Ni       1.81473742       1.81473742      -0.00000000
Ni       3.62947484       3.62947484      -0.00000000
Ni       5.44421226       5.44421226      -0.00000000
Ni       7.25894968       7.25894968      -0.00000000
Ni       9.07368710       9.07368710      -0.00000000
Ni      10.88842452      10.88842452      -0.00000000
7
Lattice="1.8091173701940726e-18 1.8147374208134635 1.8147374208134635 5.444212262440391 3.629474841626927 1.8147374208134635 12.703161945694244 12.703161945694244 -4.1764172628484596e-18" Properties=species:S:1:pos:R:3 mixing_energy=0.003460407702252231 energy=-27.944851431002544 pbc="T T T"
Cu       0.00000000       0.00000000       0.00000000
Cu       1.81473742       1.81473742      -0.00000000
Cu       3.62947484       3.62947484      -0.00000000
Cu       5.44421226       5.44421226      -0.00000000
Cu       7.25894968       7.25894968      -0.00000000
Cu       9.07368710       9.07368710      -0.00000000
Ni      10.88842452      10.88842452      -0.00000000
7
Lattice="1.8091173701940726e-18 1.8147374208134635 1.8147374208134635 5.444212262440391 3.629474841626927 1.8147374208134635 12.703161945694244 12.703161945694244 -4.1764172628484596e-18" Properties=species:S:1:pos:R:3 mixing_energy=0.010880157068835621 energy=-29.637707091088163 pbc="T T T"
Cu       0.00000000       0.00000000       0.00000000
Cu       1.81473742       1.81473742      -0.00000000
Cu       3.62947484       3.62947484      -0.00000000
Cu       5.44421226       5.44421226      -0.00000000
Cu       7.25894968       7.25894968      -0.00000000
Ni       9.07368710       9.07368710      -0.00000000
Ni      10.88842452      10.88842452      -0.00000000
7
Lattice="1.8091173701940726e-18 1.8147374208134635 1.8147374208134635 5.444212262440391 3.629474841626927 1.8147374208134635 12.703161945694244 12.703161945694244 -4.1764172628484596e-18" Properties=species:S:1:pos:R:3 mixing_energy=0.01062569987421748 energy=-29.63948829145049 pbc="T T T"
Cu       0.00000000       0.00000000       0.00000000
Cu       1.81473742       1.81473742      -0.00000000
Cu       3.62947484       3.62947484      -0.00000000
Cu       5.44421226       5.44421226      -0.00000000
Ni       7.25894968       7.25894968      -0.00000000
Cu       9.07368710       9.07368710      -0.00000000
Ni      10.88842452      10.88842452      -0.00000000
7
Lattice="1.8091173701940726e-18 1.8147374208134635 1.8147374208134635 5.444212262440391 3.629474841626927 1.8147374208134635 12.703161945694244 12.703161945694244 -4.1764172628484596e-18" Properties=species:S:1:pos:R:3 mixing_energy=0.018354882424203214 energy=-31.330177919252293 pbc="T T T"
Cu       0.00000000       0.00000000       0.00000000
Cu       1.81473742       1.81473742      -0.00000000
Cu       3.62947484       3.62947484      -0.00000000
Cu       5.44421226       5.44421226      -0.00000000
Ni       7.25894968       7.25894968      -0.00000000
Ni       9.07368710       9.07368710      -0.00000000
Ni      10.88842452      10.88842452      -0.00000000
7
Lattice="1.8091173701940726e-18 1.8147374208134635 1.8147374208134635 5.444212262440391 3.629474841626927 1.8147374208134635 12.703161945694244 12.703161945694244 -4.1764172628484596e-18" Properties=species:S:1:pos:R:3 mixing_energy=0.014226714565945946 energy=-29.61428118860839 pbc="T T T"
Cu       0.00000000       0.00000000       0.00000000
Cu       1.81473742       1.81473742      -0.00000000
Cu       3.62947484       3.62947484      -0.00000000
Ni       5.44421226       5.44421226      -0.00000000
Cu       7.25894968       7.25894968      -0.00000000
Cu       9.07368710       9.07368710      -0.00000000
Ni      10.88842452      10.88842452      -0.00000000
7
Lattice="1.8091173701940726e-18 1.8147374208134635 1.8147374208134635 5.444212262440391 3.629474841626927 1.8147374208134635 12.703161945694244 12.703161945694244 -4.1764172628484596e-18" Properties=species:S:1:pos:R:3 mixing_energy=0.021666565085015726 energy=-31.306996140626605 pbc="T T T"
Cu       0.00000000       0.00000000       0.00000000
Cu       1.81473742       1.81473742      -0.00000000
Cu       3.62947484       3.62947484      -0.00000000
Ni       5.44421226       5.44421226      -0.00000000
Cu       7.25894968       7.25894968      -0.00000000
Ni       9.07368710       9.07368710      -0.00000000
Ni      10.88842452      10.88842452      -0.00000000
7
Lattice="1.8091173701940726e-18 1.8147374208134635 1.8147374208134635 5.444212262440391 3.629474841626927 1.8147374208134635 12.703161945694244 12.703161945694244 -4.1764172628484596e-18" Properties=species:S:1:pos:R:3 mixing_energy=0.025676143675482876 energy=-33.02372299614504 pbc="T T T"
Cu       0.00000000       0.00000000       0.00000000
Cu       1.81473742       1.81473742      -0.00000000
Cu       3.62947484       3.62947484      -0.00000000
Ni       5.44421226       5.44421226      -0.00000000
Ni       7.25894968       7.25894968      -0.00000000
Ni       9.07368710       9.07368710      -0.00000000
Ni      10.88842452      10.88842452      -0.00000000
7
Lattice="1.8091173701940726e-18 1.8147374208134635 1.8147374208134635 5.444212262440391 3.629474841626927 1.8147374208134635 12.703161945694244 12.703161945694244 -4.1764172628484596e-18" Properties=species:S:1:pos:R:3 mixing_energy=0.0247579395228311 energy=-31.285356519561898 pbc="T T T"
Cu       0.00000000       0.00000000       0.00000000
Cu       1.81473742       1.81473742      -0.00000000
Ni       3.62947484       3.62947484      -0.00000000
Cu       5.44421226       5.44421226      -0.00000000
Cu       7.25894968       7.25894968      -0.00000000
Ni       9.07368710       9.07368710      -0.00000000
Ni      10.88842452      10.88842452      -0.00000000
7
Lattice="1.8091173701940726e-18 1.8147374208134635 1.8147374208134635 5.444212262440391 3.629474841626927 1.8147374208134635 12.703161945694244 12.703161945694244 -4.1764172628484596e-18" Properties=species:S:1:pos:R:3 mixing_energy=0.020577539818698348 energy=-31.314619317490827 pbc="T T T"
Cu       0.00000000       0.00000000       0.00000000
Cu       1.81473742       1.81473742      -0.00000000
Ni       3.62947484       3.62947484      -0.00000000
Cu       5.44421226       5.44421226      -0.00000000
Ni       7.25894968       7.25894968      -0.00000000
Cu       9.07368710       9.07368710      -0.00000000
Ni      10.88842452      10.88842452      -0.00000000
7
Lattice="1.8091173701940726e-18 1.8147374208134635 1.8147374208134635 5.444212262440391 3.629474841626927 1.8147374208134635 12.703161945694244 12.703161945694244 -4.1764172628484596e-18" Properties=species:S:1:pos:R:3 mixing_energy=0.027955454110642312 energy=-33.00776782309892 pbc="T T T"
Cu       0.00000000       0.00000000       0.00000000
Cu       1.81473742       1.81473742      -0.00000000
Ni       3.62947484       3.62947484      -0.00000000
Cu       5.44421226       5.44421226      -0.00000000
Ni       7.25894968       7.25894968      -0.00000000
Ni       9.07368710       9.07368710      -0.00000000
Ni      10.88842452      10.88842452      -0.00000000
7
Lattice="1.8091173701940726e-18 1.8147374208134635 1.8147374208134635 5.444212262440391 3.629474841626927 1.8147374208134635 12.703161945694244 12.703161945694244 -4.1764172628484596e-18" Properties=species:S:1:pos:R:3 mixing_energy=0.030869622861732386 energy=-32.98736864184129 pbc="T T T"
Cu       0.00000000       0.00000000       0.00000000
Cu       1.81473742       1.81473742      -0.00000000
Ni       3.62947484       3.62947484      -0.00000000
Ni       5.44421226       5.44421226      -0.00000000
Cu       7.25894968       7.25894968      -0.00000000
Ni       9.07368710       9.07368710      -0.00000000
Ni      10.88842452      10.88842452      -0.00000000
7
Lattice="1.8091173701940726e-18 1.8147374208134635 1.8147374208134635 5.444212262440391 3.629474841626927 1.8147374208134635 12.703161945694244 12.703161945694244 -4.1764172628484596e-18" Properties=species:S:1:pos:R:3 mixing_energy=0.028082697753477857 energy=-34.75167102325078 pbc="T T T"
Cu       0.00000000       0.00000000       0.00000000
Cu       1.81473742       1.81473742      -0.00000000
Ni       3.62947484       3.62947484      -0.00000000
Ni       5.44421226       5.44421226      -0.00000000
Ni       7.25894968       7.25894968      -0.00000000
Ni       9.07368710       9.07368710      -0.00000000
Ni      10.88842452      10.88842452      -0.00000000
7
Lattice="1.8091173701940726e-18 1.8147374208134635 1.8147374208134635 5.444212262440391 3.629474841626927 1.8147374208134635 12.703161945694244 12.703161945694244 -4.1764172628484596e-18" Properties=species:S:1:pos:R:3 mixing_energy=0.02665633495176475 energy=-33.01686165721107 pbc="T T T"
Cu       0.00000000       0.00000000       0.00000000
Ni       1.81473742       1.81473742      -0.00000000
Cu       3.62947484       3.62947484      -0.00000000
Ni       5.44421226       5.44421226      -0.00000000
Cu       7.25894968       7.25894968      -0.00000000
Ni       9.07368710       9.07368710      -0.00000000
Ni      10.88842452      10.88842452      -0.00000000
7
Lattice="1.8091173701940726e-18 1.8147374208134635 1.8147374208134635 5.444212262440391 3.629474841626927 1.8147374208134635 12.703161945694244 12.703161945694244 -4.1764172628484596e-18" Properties=species:S:1:pos:R:3 mixing_energy=0.026697806819193204 energy=-34.76136525979077 pbc="T T T"
Cu       0.00000000       0.00000000       0.00000000
Ni       1.81473742       1.81473742      -0.00000000
Cu       3.62947484       3.62947484      -0.00000000
Ni       5.44421226       5.44421226      -0.00000000
Ni       7.25894968       7.25894968      -0.00000000
Ni       9.07368710       9.07368710      -0.00000000
Ni      10.88842452      10.88842452      -0.00000000
7
Lattice="1.8091173701940726e-18 1.8147374208134635 1.8147374208134635 5.444212262440391 3.629474841626927 1.8147374208134635 12.703161945694244 12.703161945694244 -4.1764172628484596e-18" Properties=species:S:1:pos:R:3 mixing_energy=0.02915378687497951 energy=-34.74417339940027 pbc="T T T"
Cu       0.00000000       0.00000000       0.00000000
Ni       1.81473742       1.81473742      -0.00000000
Ni       3.62947484       3.62947484      -0.00000000
Cu       5.44421226       5.44421226      -0.00000000
Ni       7.25894968       7.25894968      -0.00000000
Ni       9.07368710       9.07368710      -0.00000000
Ni      10.88842452      10.88842452      -0.00000000
7
Lattice="1.8091173701940726e-18 1.8147374208134635 1.8147374208134635 5.444212262440391 3.629474841626927 1.8147374208134635 12.703161945694244 12.703161945694244 -4.1764172628484596e-18" Properties=species:S:1:pos:R:3 mixing_energy=0.0194408486284792 energy=-36.556957872777474 pbc="T T T"
Cu       0.00000000       0.00000000       0.00000000
Ni       1.81473742       1.81473742      -0.00000000
Ni       3.62947484       3.62947484      -0.00000000
Ni       5.44421226       5.44421226      -0.00000000
Ni       7.25894968       7.25894968      -0.00000000
Ni       9.07368710       9.07368710      -0.00000000
Ni      10.88842452      10.88842452      -0.00000000
7
Lattice="1.8091173701940726e-18 1.8147374208134635 1.8147374208134635 7.258949683253854 5.444212262440391 1.8147374208134635 12.703161945694244 12.703161945694244 -4.1764172628484596e-18" Properties=species:S:1:pos:R:3 mixing_energy=0.0046158943751116255 energy=-27.936763024292528 pbc="T T T"
Cu       0.00000000       0.00000000       0.00000000
Cu       1.81473742       1.81473742      -0.00000000
Cu       3.62947484       3.62947484      -0.00000000
Cu       5.44421226       5.44421226      -0.00000000
Cu       7.25894968       7.25894968      -0.00000000
Cu       9.07368710       9.07368710      -0.00000000
Ni      10.88842452      10.88842452      -0.00000000
7
Lattice="1.8091173701940726e-18 1.8147374208134635 1.8147374208134635 7.258949683253854 5.444212262440391 1.8147374208134635 12.703161945694244 12.703161945694244 -4.1764172628484596e-18" Properties=species:S:1:pos:R:3 mixing_energy=0.0114443208816721 energy=-29.633757944398308 pbc="T T T"
Cu       0.00000000       0.00000000       0.00000000
Cu       1.81473742       1.81473742      -0.00000000
Cu       3.62947484       3.62947484      -0.00000000
Cu       5.44421226       5.44421226      -0.00000000
Cu       7.25894968       7.25894968      -0.00000000
Ni       9.07368710       9.07368710      -0.00000000
Ni      10.88842452      10.88842452      -0.00000000
7
Lattice="1.8091173701940726e-18 1.8147374208134635 1.8147374208134635 7.258949683253854 5.444212262440391 1.8147374208134635 12.703161945694244 12.703161945694244 -4.1764172628484596e-18" Properties=species:S:1:pos:R:3 mixing_energy=0.016351552765829527 energy=-29.599407321209206 pbc="T T T"
Cu       0.00000000       0.00000000       0.00000000
Cu       1.81473742       1.81473742      -0.00000000
Cu       3.62947484       3.62947484      -0.00000000
Cu       5.44421226       5.44421226      -0.00000000
Ni       7.25894968       7.25894968      -0.00000000
Cu       9.07368710       9.07368710      -0.00000000
Ni      10.88842452      10.88842452      -0.00000000
7
Lattice="1.8091173701940726e-18 1.8147374208134635 1.8147374208134635 7.258949683253854 5.444212262440391 1.8147374208134635 12.703161945694244 12.703161945694244 -4.1764172628484596e-18" Properties=species:S:1:pos:R:3 mixing_energy=0.022867609921423844 energy=-31.29858882677175 pbc="T T T"
Cu       0.00000000       0.00000000       0.00000000
Cu       1.81473742       1.81473742      -0.00000000
Cu       3.62947484       3.62947484      -0.00000000
Cu       5.44421226       5.44421226      -0.00000000
Ni       7.25894968       7.25894968      -0.00000000
Ni       9.07368710       9.07368710      -0.00000000
Ni      10.88842452      10.88842452      -0.00000000
7
Lattice="1.8091173701940726e-18 1.8147374208134635 1.8147374208134635 7.258949683253854 5.444212262440391 1.8147374208134635 12.703161945694244 12.703161945694244 -4.1764172628484596e-18" Properties=species:S:1:pos:R:3 mixing_energy=0.011750019465572034 energy=-29.63161805431101 pbc="T T T"
Cu       0.00000000       0.00000000       0.00000000
Cu       1.81473742       1.81473742      -0.00000000
Cu       3.62947484       3.62947484      -0.00000000
Ni       5.44421226       5.44421226      -0.00000000
Cu       7.25894968       7.25894968      -0.00000000
Cu       9.07368710       9.07368710      -0.00000000
Ni      10.88842452      10.88842452      -0.00000000
7
Lattice="1.8091173701940726e-18 1.8147374208134635 1.8147374208134635 7.258949683253854 5.444212262440391 1.8147374208134635 12.703161945694244 12.703161945694244 -4.1764172628484596e-18" Properties=species:S:1:pos:R:3 mixing_energy=0.022120907916873125 energy=-31.303815740803604 pbc="T T T"
Cu       0.00000000       0.00000000       0.00000000
Cu       1.81473742       1.81473742      -0.00000000
Cu       3.62947484       3.62947484      -0.00000000
Ni       5.44421226       5.44421226      -0.00000000
Cu       7.25894968       7.25894968      -0.00000000
Ni       9.07368710       9.07368710      -0.00000000
Ni      10.88842452      10.88842452      -0.00000000
7
Lattice="1.8091173701940726e-18 1.8147374208134635 1.8147374208134635 7.258949683253854 5.444212262440391 1.8147374208134635 12.703161945694244 12.703161945694244 -4.1764172628484596e-18" Properties=species:S:1:pos:R:3 mixing_energy=0.029283144802156307 energy=-32.998473988258326 pbc="T T T"
Cu       0.00000000       0.00000000       0.00000000
Cu       1.81473742       1.81473742      -0.00000000
Cu       3.62947484       3.62947484      -0.00000000
Ni       5.44421226       5.44421226      -0.00000000
Ni       7.25894968       7.25894968      -0.00000000
Ni       9.07368710       9.07368710      -0.00000000
Ni      10.88842452      10.88842452      -0.00000000
7
Lattice="1.8091173701940726e-18 1.8147374208134635 1.8147374208134635 7.258949683253854 5.444212262440391 1.8147374208134635 12.703161945694244 12.703161945694244 -4.1764172628484596e-18" Properties=species:S:1:pos:R:3 mixing_energy=0.015436025801292885 energy=-31.350609915612665 pbc="T T T"
Cu       0.00000000       0.00000000       0.00000000
Cu       1.81473742       1.81473742      -0.00000000
Ni       3.62947484       3.62947484      -0.00000000
Cu       5.44421226       5.44421226      -0.00000000
Cu       7.25894968       7.25894968      -0.00000000
Ni       9.07368710       9.07368710      -0.00000000
Ni      10.88842452      10.88842452      -0.00000000
7
Lattice="1.8091173701940726e-18 1.8147374208134635 1.8147374208134635 7.258949683253854 5.444212262440391 1.8147374208134635 12.703161945694244 12.703161945694244 -4.1764172628484596e-18" Properties=species:S:1:pos:R:3 mixing_energy=0.028300203475850542 energy=-31.26056067189076 pbc="T T T"
Cu       0.00000000       0.00000000       0.00000000
Cu       1.81473742       1.81473742      -0.00000000
Ni       3.62947484       3.62947484      -0.00000000
Cu       5.44421226       5.44421226      -0.00000000
Ni       7.25894968       7.25894968      -0.00000000
Cu       9.07368710       9.07368710      -0.00000000
Ni      10.88842452      10.88842452      -0.00000000
7
Lattice="1.8091173701940726e-18 1.8147374208134635 1.8147374208134635 7.258949683253854 5.444212262440391 1.8147374208134635 12.703161945694244 12.703161945694244 -4.1764172628484596e-18" Properties=species:S:1:pos:R:3 mixing_energy=0.0280784435460047 energy=-33.00690689705139 pbc="T T T"
Cu       0.00000000       0.00000000       0.00000000
Cu       1.81473742       1.81473742      -0.00000000
Ni       3.62947484       3.62947484      -0.00000000
Cu       5.44421226       5.44421226      -0.00000000
Ni       7.25894968       7.25894968      -0.00000000
Ni       9.07368710       9.07368710      -0.00000000
Ni      10.88842452      10.88842452      -0.00000000
7
Lattice="1.8091173701940726e-18 1.8147374208134635 1.8147374208134635 7.258949683253854 5.444212262440391 1.8147374208134635 12.703161945694244 12.703161945694244 -4.1764172628484596e-18" Properties=species:S:1:pos:R:3 mixing_energy=0.019547256721882685 energy=-33.06662520482024 pbc="T T T"
Cu       0.00000000       0.00000000       0.00000000
Cu       1.81473742       1.81473742      -0.00000000
Ni       3.62947484       3.62947484      -0.00000000
Ni       5.44421226       5.44421226      -0.00000000
Cu       7.25894968       7.25894968      -0.00000000
Ni       9.07368710       9.07368710      -0.00000000
Ni      10.88842452      10.88842452      -0.00000000
7
Lattice="1.8091173701940726e-18 1.8147374208134635 1.8147374208134635 7.258949683253854 5.444212262440391 1.8147374208134635 12.703161945694244 12.703161945694244 -4.1764172628484596e-18" Properties=species:S:1:pos:R:3 mixing_energy=0.025829094283206393 energy=-34.76744624754268 pbc="T T T"
Cu       0.00000000       0.00000000       0.00000000
Cu       1.81473742       1.81473742      -0.00000000
Ni       3.62947484       3.62947484      -0.00000000
Ni       5.44421226       5.44421226      -0.00000000
Ni       7.25894968       7.25894968      -0.00000000
Ni       9.07368710       9.07368710      -0.00000000
Ni      10.88842452      10.88842452      -0.00000000
7
Lattice="1.8091173701940726e-18 1.8147374208134635 1.8147374208134635 7.258949683253854 5.444212262440391 1.8147374208134635 12.703161945694244 12.703161945694244 -4.1764172628484596e-18" Properties=species:S:1:pos:R:3 mixing_energy=0.03504429555699318 energy=-32.95814593297447 pbc="T T T"
Cu       0.00000000       0.00000000       0.00000000
Ni       1.81473742       1.81473742      -0.00000000
Cu       3.62947484       3.62947484      -0.00000000
Ni       5.44421226       5.44421226      -0.00000000
Cu       7.25894968       7.25894968      -0.00000000
Ni       9.07368710       9.07368710      -0.00000000
Ni      10.88842452      10.88842452      -0.00000000
7
Lattice="1.8091173701940726e-18 1.8147374208134635 1.8147374208134635 7.258949683253854 5.444212262440391 1.8147374208134635 12.703161945694244 12.703161945694244 -4.1764172628484596e-18" Properties=species:S:1:pos:R:3 mixing_energy=0.03364571988356196 energy=-34.71272986834019 pbc="T T T"
Cu       0.00000000       0.00000000       0.00000000
Ni       1.81473742       1.81473742      -0.00000000
Cu       3.62947484       3.62947484      -0.00000000
Ni       5.44421226       5.44421226      -0.00000000
Ni       7.25894968       7.25894968      -0.00000000
Ni       9.07368710       9.07368710      -0.00000000
Ni      10.88842452      10.88842452      -0.00000000
7
Lattice="1.8091173701940726e-18 1.8147374208134635 1.8147374208134635 7.258949683253854 5.444212262440391 1.8147374208134635 12.703161945694244 12.703161945694244 -4.1764172628484596e-18" Properties=species:S:1:pos:R:3 mixing_energy=0.02390550218496352 energy=-34.78091139223038 pbc="T T T"
Cu       0.00000000       0.00000000       0.00000000
Ni       1.81473742       1.81473742      -0.00000000
Ni       3.62947484       3.62947484      -0.00000000
Cu       5.44421226       5.44421226      -0.00000000
Ni       7.25894968       7.25894968      -0.00000000
Ni       9.07368710       9.07368710      -0.00000000
Ni      10.88842452      10.88842452      -0.00000000
7
Lattice="1.8091173701940726e-18 1.8147374208134635 1.8147374208134635 7.258949683253854 5.444212262440391 1.8147374208134635 12.703161945694244 12.703161945694244 -4.1764172628484596e-18" Properties=species:S:1:pos:R:3 mixing_energy=0.019219168233070554 energy=-36.558509635545335 pbc="T T T"
Cu       0.00000000       0.00000000       0.00000000
Ni       1.81473742       1.81473742      -0.00000000
Ni       3.62947484       3.62947484      -0.00000000
Ni       5.44421226       5.44421226      -0.00000000
Ni       7.25894968       7.25894968      -0.00000000
Ni       9.07368710       9.07368710      -0.00000000
Ni      10.88842452      10.88842452      -0.00000000
7
Lattice="1.8091173701940726e-18 1.8147374208134635 1.8147374208134635 12.703161945694244 10.888424524880781 1.8147374208134635 12.703161945694244 12.703161945694244 -4.1764172628484596e-18" Properties=species:S:1:pos:R:3 mixing_energy=0.0066054984323590405 energy=-27.922835795891796 pbc="T T T"
Cu       0.00000000       0.00000000       0.00000000
Cu       1.81473742       1.81473742      -0.00000000
Cu       3.62947484       3.62947484      -0.00000000
Cu       5.44421226       5.44421226      -0.00000000
Cu       7.25894968       7.25894968      -0.00000000
Cu       9.07368710       9.07368710      -0.00000000
Ni      10.88842452      10.88842452      -0.00000000
7
Lattice="1.8091173701940726e-18 1.8147374208134635 1.8147374208134635 12.703161945694244 10.888424524880781 1.8147374208134635 12.703161945694244 12.703161945694244 -4.1764172628484596e-18" Properties=species:S:1:pos:R:3 mixing_energy=0.009915898625352628 energy=-29.644456900192544 pbc="T T T"
Cu       0.00000000       0.00000000       0.00000000
Cu       1.81473742       1.81473742      -0.00000000
Cu       3.62947484       3.62947484      -0.00000000
Cu       5.44421226       5.44421226      -0.00000000
Cu       7.25894968       7.25894968      -0.00000000
Ni       9.07368710       9.07368710      -0.00000000
Ni      10.88842452      10.88842452      -0.00000000
7
Lattice="1.8091173701940726e-18 1.8147374208134635 1.8147374208134635 12.703161945694244 10.888424524880781 1.8147374208134635 12.703161945694244 12.703161945694244 -4.1764172628484596e-18" Properties=species:S:1:pos:R:3 mixing_energy=0.017575295288964603 energy=-29.59084112354726 pbc="T T T"
Cu       0.00000000       0.00000000       0.00000000
Cu       1.81473742       1.81473742      -0.00000000
Cu       3.62947484       3.62947484      -0.00000000
Cu       5.44421226       5.44421226      -0.00000000
Ni       7.25894968       7.25894968      -0.00000000
Cu       9.07368710       9.07368710      -0.00000000
Ni      10.88842452      10.88842452      -0.00000000
7
Lattice="1.8091173701940726e-18 1.8147374208134635 1.8147374208134635 12.703161945694244 10.888424524880781 1.8147374208134635 12.703161945694244 12.703161945694244 -4.1764172628484596e-18" Properties=species:S:1:pos:R:3 mixing_energy=0.011926994371633677 energy=-31.37517313562028 pbc="T T T"
Cu       0.00000000       0.00000000       0.00000000
Cu       1.81473742       1.81473742      -0.00000000
Cu       3.62947484       3.62947484      -0.00000000
Cu       5.44421226       5.44421226      -0.00000000
Ni       7.25894968       7.25894968      -0.00000000
Ni       9.07368710       9.07368710      -0.00000000
Ni      10.88842452      10.88842452      -0.00000000
7
Lattice="1.8091173701940726e-18 1.8147374208134635 1.8147374208134635 12.703161945694244 10.888424524880781 1.8147374208134635 12.703161945694244 12.703161945694244 -4.1764172628484596e-18" Properties=species:S:1:pos:R:3 mixing_energy=0.013306937472684157 energy=-29.620719628261224 pbc="T T T"
Cu       0.00000000       0.00000000       0.00000000
Cu       1.81473742       1.81473742      -0.00000000
Cu       3.62947484       3.62947484      -0.00000000
Ni       5.44421226       5.44421226      -0.00000000
Cu       7.25894968       7.25894968      -0.00000000
Cu       9.07368710       9.07368710      -0.00000000
Ni      10.88842452      10.88842452      -0.00000000
7
Lattice="1.8091173701940726e-18 1.8147374208134635 1.8147374208134635 12.703161945694244 10.888424524880781 1.8147374208134635 12.703161945694244 12.703161945694244 -4.1764172628484596e-18" Properties=species:S:1:pos:R:3 mixing_energy=0.019124108344297293 energy=-31.324793337811634 pbc="T T T"
Cu       0.00000000       0.00000000       0.00000000
Cu       1.81473742       1.81473742      -0.00000000
Cu       3.62947484       3.62947484      -0.00000000
Ni       5.44421226       5.44421226      -0.00000000
Cu       7.25894968       7.25894968      -0.00000000
Ni       9.07368710       9.07368710      -0.00000000
Ni      10.88842452      10.88842452      -0.00000000
7
Lattice="1.8091173701940726e-18 1.8147374208134635 1.8147374208134635 12.703161945694244 10.888424524880781 1.8147374208134635 12.703161945694244 12.703161945694244 -4.1764172628484596e-18" Properties=species:S:1:pos:R:3 mixing_energy=0.010838616180082892 energy=-33.12758568861284 pbc="T T T"
Cu       0.00000000       0.00000000       0.00000000
Cu       1.81473742       1.81473742      -0.00000000
Cu       3.62947484       3.62947484      -0.00000000
Ni       5.44421226       5.44421226      -0.00000000
Ni       7.25894968       7.25894968      -0.00000000
Ni       9.07368710       9.07368710      -0.00000000
Ni      10.88842452      10.88842452      -0.00000000
7
Lattice="1.8091173701940726e-18 1.8147374208134635 1.8147374208134635 12.703161945694244 10.888424524880781 1.8147374208134635 12.703161945694244 12.703161945694244 -4.1764172628484596e-18" Properties=species:S:1:pos:R:3 mixing_energy=0.016528802320019156 energy=-31.34296047998158 pbc="T T T"
Cu       0.00000000       0.00000000       0.00000000
Cu       1.81473742       1.81473742      -0.00000000
Ni       3.62947484       3.62947484      -0.00000000
Cu       5.44421226       5.44421226      -0.00000000
Cu       7.25894968       7.25894968      -0.00000000
Ni       9.07368710       9.07368710      -0.00000000
Ni      10.88842452      10.88842452      -0.00000000
7
Lattice="1.8091173701940726e-18 1.8147374208134635 1.8147374208134635 12.703161945694244 10.888424524880781 1.8147374208134635 12.703161945694244 12.703161945694244 -4.1764172628484596e-18" Properties=species:S:1:pos:R:3 mixing_energy=0.02930148344019098 energy=-31.25355171214038 pbc="T T T"
Cu       0.00000000       0.00000000       0.00000000
Cu       1.81473742       1.81473742      -0.00000000
Ni       3.62947484       3.62947484      -0.00000000
Cu       5.44421226       5.44421226      -0.00000000
Ni       7.25894968       7.25894968      -0.00000000
Cu       9.07368710       9.07368710      -0.00000000
Ni      10.88842452      10.88842452      -0.00000000
7
Lattice="1.8091173701940726e-18 1.8147374208134635 1.8147374208134635 12.703161945694244 10.888424524880781 1.8147374208134635 12.703161945694244 12.703161945694244 -4.1764172628484596e-18" Properties=species:S:1:pos:R:3 mixing_energy=0.02183916956059408 energy=-33.05058181494926 pbc="T T T"
Cu       0.00000000       0.00000000       0.00000000
Cu       1.81473742       1.81473742      -0.00000000
Ni       3.62947484       3.62947484      -0.00000000
Cu       5.44421226       5.44421226      -0.00000000
Ni       7.25894968       7.25894968      -0.00000000
Ni       9.07368710       9.07368710      -0.00000000
Ni      10.88842452      10.88842452      -0.00000000
7
Lattice="1.8091173701940726e-18 1.8147374208134635 1.8147374208134635 12.703161945694244 10.888424524880781 1.8147374208134635 12.703161945694244 12.703161945694244 -4.1764172628484596e-18" Properties=species:S:1:pos:R:3 mixing_energy=0.021081838503209025 energy=-33.05588313235096 pbc="T T T"
Cu       0.00000000       0.00000000       0.00000000
Cu       1.81473742       1.81473742      -0.00000000
Ni       3.62947484       3.62947484      -0.00000000
Ni       5.44421226       5.44421226      -0.00000000
Cu       7.25894968       7.25894968      -0.00000000
Ni       9.07368710       9.07368710      -0.00000000
Ni      10.88842452      10.88842452      -0.00000000
7
Lattice="1.8091173701940726e-18 1.8147374208134635 1.8147374208134635 12.703161945694244 10.888424524880781 1.8147374208134635 12.703161945694244 12.703161945694244 -4.1764172628484596e-18" Properties=species:S:1:pos:R:3 mixing_energy=0.010660116962210761 energy=-34.87362908878965 pbc="T T T"
Cu       0.00000000       0.00000000       0.00000000
Cu       1.81473742       1.81473742      -0.00000000
Ni       3.62947484       3.62947484      -0.00000000
Ni       5.44421226       5.44421226      -0.00000000
Ni       7.25894968       7.25894968      -0.00000000
Ni       9.07368710       9.07368710      -0.00000000
Ni      10.88842452      10.88842452      -0.00000000
7
Lattice="1.8091173701940726e-18 1.8147374208134635 1.8147374208134635 12.703161945694244 10.888424524880781 1.8147374208134635 12.703161945694244 12.703161945694244 -4.1764172628484596e-18" Properties=species:S:1:pos:R:3 mixing_energy=0.03423397849115263 energy=-32.96381815243535 pbc="T T T"
Cu       0.00000000       0.00000000       0.00000000
Ni       1.81473742       1.81473742      -0.00000000
Cu       3.62947484       3.62947484      -0.00000000
Ni       5.44421226       5.44421226      -0.00000000
Cu       7.25894968       7.25894968      -0.00000000
Ni       9.07368710       9.07368710      -0.00000000
Ni      10.88842452      10.88842452      -0.00000000
7
Lattice="1.8091173701940726e-18 1.8147374208134635 1.8147374208134635 12.703161945694244 10.888424524880781 1.8147374208134635 12.703161945694244 12.703161945694244 -4.1764172628484596e-18" Properties=species:S:1:pos:R:3 mixing_energy=0.02506810205068685 energy=-34.772773193170316 pbc="T T T"
Cu       0.00000000       0.00000000       0.00000000
Ni       1.81473742       1.81473742      -0.00000000
Cu       3.62947484       3.62947484      -0.00000000
Ni       5.44421226       5.44421226      -0.00000000
Ni       7.25894968       7.25894968      -0.00000000
Ni       9.07368710       9.07368710      -0.00000000
Ni      10.88842452      10.88842452      -0.00000000
7
Lattice="1.8091173701940726e-18 1.8147374208134635 1.8147374208134635 12.703161945694244 10.888424524880781 1.8147374208134635 12.703161945694244 12.703161945694244 -4.1764172628484596e-18" Properties=species:S:1:pos:R:3 mixing_energy=0.026027753077138577 energy=-34.766055635985154 pbc="T T T"
Cu       0.00000000       0.00000000       0.00000000
Ni       1.81473742       1.81473742      -0.00000000
Ni       3.62947484       3.62947484      -0.00000000
Cu       5.44421226       5.44421226      -0.00000000
Ni       7.25894968       7.25894968      -0.00000000
Ni       9.07368710       9.07368710      -0.00000000
Ni      10.88842452      10.88842452      -0.00000000
7
Lattice="1.8091173701940726e-18 1.8147374208134635 1.8147374208134635 12.703161945694244 10.888424524880781 1.8147374208134635 12.703161945694244 12.703161945694244 -4.1764172628484596e-18" Properties=species:S:1:pos:R:3 mixing_energy=0.01373609033368999 energy=-36.596891180841 pbc="T T T"
Cu       0.00000000       0.00000000       0.00000000
Ni       1.81473742       1.81473742      -0.00000000
Ni       3.62947484       3.62947484      -0.00000000
Ni       5.44421226       5.44421226      -0.00000000
Ni       7.25894968       7.25894968      -0.00000000
Ni       9.07368710       9.07368710      -0.00000000
Ni      10.88842452      10.88842452      -0.00000000
7
Lattice="1.8147374208134635 3.629474841626927 1.8147374208134635 5.444212262440391 3.629474841626927 1.8147374208134635 12.703161945694244 12.703161945694244 -4.1764172628484596e-18" Properties=species:S:1:pos:R:3 mixing_energy=0.005269431222896185 energy=-27.932188266358036 pbc="T T T"
Cu       0.00000000       0.00000000       0.00000000
Cu       1.81473742       1.81473742      -0.00000000
Cu       3.62947484       3.62947484      -0.00000000
Cu       5.44421226       5.44421226      -0.00000000
Cu       7.25894968       7.25894968      -0.00000000
Cu       9.07368710       9.07368710      -0.00000000
Ni      10.88842452      10.88842452      -0.00000000
7
Lattice="1.8147374208134635 3.629474841626927 1.8147374208134635 5.444212262440391 3.629474841626927 1.8147374208134635 12.703161945694244 12.703161945694244 -4.1764172628484596e-18" Properties=species:S:1:pos:R:3 mixing_energy=0.013384067374890205 energy=-29.62017971894578 pbc="T T T"
Cu       0.00000000       0.00000000       0.00000000
Cu       1.81473742       1.81473742      -0.00000000
Cu       3.62947484       3.62947484      -0.00000000
Cu       5.44421226       5.44421226      -0.00000000
Cu       7.25894968       7.25894968      -0.00000000
Ni       9.07368710       9.07368710      -0.00000000
Ni      10.88842452      10.88842452      -0.00000000
7
Lattice="1.8147374208134635 3.629474841626927 1.8147374208134635 5.444212262440391 3.629474841626927 1.8147374208134635 12.703161945694244 12.703161945694244 -4.1764172628484596e-18" Properties=species:S:1:pos:R:3 mixing_energy=0.01627104295682028 energy=-29.59997088987227 pbc="T T T"
Cu       0.00000000       0.00000000       0.00000000
Cu       1.81473742       1.81473742      -0.00000000
Cu       3.62947484       3.62947484      -0.00000000
Cu       5.44421226       5.44421226      -0.00000000
Ni       7.25894968       7.25894968      -0.00000000
Cu       9.07368710       9.07368710      -0.00000000
Ni      10.88842452      10.88842452      -0.00000000
7
Lattice="1.8147374208134635 3.629474841626927 1.8147374208134635 5.444212262440391 3.629474841626927 1.8147374208134635 12.703161945694244 12.703161945694244 -4.1764172628484596e-18" Properties=species:S:1:pos:R:3 mixing_energy=0.02180799382607138 energy=-31.306006139439216 pbc="T T T"
Cu       0.00000000       0.00000000       0.00000000
Cu       1.81473742       1.81473742      -0.00000000
Cu       3.62947484       3.62947484      -0.00000000
Cu       5.44421226       5.44421226      -0.00000000
Ni       7.25894968       7.25894968      -0.00000000
Ni       9.07368710       9.07368710      -0.00000000
Ni      10.88842452      10.88842452      -0.00000000
7
Lattice="1.8147374208134635 3.629474841626927 1.8147374208134635 5.444212262440391 3.629474841626927 1.8147374208134635 12.703161945694244 12.703161945694244 -4.1764172628484596e-18" Properties=species:S:1:pos:R:3 mixing_energy=0.017817911209152167 energy=-29.589142812105948 pbc="T T T"
Cu       0.00000000       0.00000000       0.00000000
Cu       1.81473742       1.81473742      -0.00000000
Cu       3.62947484       3.62947484      -0.00000000
Ni       5.44421226       5.44421226      -0.00000000
Cu       7.25894968       7.25894968      -0.00000000
Cu       9.07368710       9.07368710      -0.00000000
Ni      10.88842452      10.88842452      -0.00000000
7
Lattice="1.8147374208134635 3.629474841626927 1.8147374208134635 5.444212262440391 3.629474841626927 1.8147374208134635 12.703161945694244 12.703161945694244 -4.1764172628484596e-18" Properties=species:S:1:pos:R:3 mixing_energy=0.02670198907805193 energy=-31.271748172675352 pbc="T T T"
Cu       0.00000000       0.00000000       0.00000000
Cu       1.81473742       1.81473742      -0.00000000
Cu       3.62947484       3.62947484      -0.00000000
Ni       5.44421226       5.44421226      -0.00000000
Cu       7.25894968       7.25894968      -0.00000000
Ni       9.07368710       9.07368710      -0.00000000
Ni      10.88842452      10.88842452      -0.00000000
7
Lattice="1.8147374208134635 3.629474841626927 1.8147374208134635 5.444212262440391 3.629474841626927 1.8147374208134635 12.703161945694244 12.703161945694244 -4.1764172628484596e-18" Properties=species:S:1:pos:R:3 mixing_energy=0.02789932454765928 energy=-33.008160730039805 pbc="T T T"
Cu       0.00000000       0.00000000       0.00000000
Cu       1.81473742       1.81473742      -0.00000000
Cu       3.62947484       3.62947484      -0.00000000
Ni       5.44421226       5.44421226      -0.00000000
Ni       7.25894968       7.25894968      -0.00000000
Ni       9.07368710       9.07368710      -0.00000000
Ni      10.88842452      10.88842452      -0.00000000
7
Lattice="1.8147374208134635 3.629474841626927 1.8147374208134635 5.444212262440391 3.629474841626927 1.8147374208134635 12.703161945694244 12.703161945694244 -4.1764172628484596e-18" Properties=species:S:1:pos:R:3 mixing_energy=0.030683737198513836 energy=-31.24387593583212 pbc="T T T"
Cu       0.00000000       0.00000000       0.00000000
Cu       1.81473742       1.81473742      -0.00000000
Ni       3.62947484       3.62947484      -0.00000000
Cu       5.44421226       5.44421226      -0.00000000
Cu       7.25894968       7.25894968      -0.00000000
Ni       9.07368710       9.07368710      -0.00000000
Ni      10.88842452      10.88842452      -0.00000000
7
Lattice="1.8147374208134635 3.629474841626927 1.8147374208134635 5.444212262440391 3.629474841626927 1.8147374208134635 12.703161945694244 12.703161945694244 -4.1764172628484596e-18" Properties=species:S:1:pos:R:3 mixing_energy=0.031054905137846082 energy=-31.241277760256793 pbc="T T T"
Cu       0.00000000       0.00000000       0.00000000
Cu       1.81473742       1.81473742      -0.00000000
Ni       3.62947484       3.62947484      -0.00000000
Cu       5.44421226       5.44421226      -0.00000000
Ni       7.25894968       7.25894968      -0.00000000
Cu       9.07368710       9.07368710      -0.00000000
Ni      10.88842452      10.88842452      -0.00000000
7
Lattice="1.8147374208134635 3.629474841626927 1.8147374208134635 5.444212262440391 3.629474841626927 1.8147374208134635 12.703161945694244 12.703161945694244 -4.1764172628484596e-18" Properties=species:S:1:pos:R:3 mixing_energy=0.03570525847165028 energy=-32.95351919257187 pbc="T T T"
Cu       0.00000000       0.00000000       0.00000000
Cu       1.81473742       1.81473742      -0.00000000
Ni       3.62947484       3.62947484      -0.00000000
Cu       5.44421226       5.44421226      -0.00000000
Ni       7.25894968       7.25894968      -0.00000000
Ni       9.07368710       9.07368710      -0.00000000
Ni      10.88842452      10.88842452      -0.00000000
7
Lattice="1.8147374208134635 3.629474841626927 1.8147374208134635 5.444212262440391 3.629474841626927 1.8147374208134635 12.703161945694244 12.703161945694244 -4.1764172628484596e-18" Properties=species:S:1:pos:R:3 mixing_energy=0.03806094645746632 energy=-32.937029376671155 pbc="T T T"
Cu       0.00000000       0.00000000       0.00000000
Cu       1.81473742       1.81473742      -0.00000000
Ni       3.62947484       3.62947484      -0.00000000
Ni       5.44421226       5.44421226      -0.00000000
Cu       7.25894968       7.25894968      -0.00000000
Ni       9.07368710       9.07368710      -0.00000000
Ni      10.88842452      10.88842452      -0.00000000
7
Lattice="1.8147374208134635 3.629474841626927 1.8147374208134635 5.444212262440391 3.629474841626927 1.8147374208134635 12.703161945694244 12.703161945694244 -4.1764172628484596e-18" Properties=species:S:1:pos:R:3 mixing_energy=0.03155307872737317 energy=-34.72737835643351 pbc="T T T"
Cu       0.00000000       0.00000000       0.00000000
Cu       1.81473742       1.81473742      -0.00000000
Ni       3.62947484       3.62947484      -0.00000000
Ni       5.44421226       5.44421226      -0.00000000
Ni       7.25894968       7.25894968      -0.00000000
Ni       9.07368710       9.07368710      -0.00000000
Ni      10.88842452      10.88842452      -0.00000000
7
Lattice="1.8147374208134635 3.629474841626927 1.8147374208134635 5.444212262440391 3.629474841626927 1.8147374208134635 12.703161945694244 12.703161945694244 -4.1764172628484596e-18" Properties=species:S:1:pos:R:3 mixing_energy=0.03761410723615301 energy=-32.94015725122035 pbc="T T T"
Cu       0.00000000       0.00000000       0.00000000
Ni       1.81473742       1.81473742      -0.00000000
Cu       3.62947484       3.62947484      -0.00000000
Ni       5.44421226       5.44421226      -0.00000000
Cu       7.25894968       7.25894968      -0.00000000
Ni       9.07368710       9.07368710      -0.00000000
Ni      10.88842452      10.88842452      -0.00000000
7
Lattice="1.8147374208134635 3.629474841626927 1.8147374208134635 5.444212262440391 3.629474841626927 1.8147374208134635 12.703161945694244 12.703161945694244 -4.1764172628484596e-18" Properties=species:S:1:pos:R:3 mixing_energy=0.03461884925225637 energy=-34.70591796275933 pbc="T T T"
Cu       0.00000000       0.00000000       0.00000000
Ni       1.81473742       1.81473742      -0.00000000
Cu       3.62947484       3.62947484      -0.00000000
Ni       5.44421226       5.44421226      -0.00000000
Ni       7.25894968       7.25894968      -0.00000000
Ni       9.07368710       9.07368710      -0.00000000
Ni      10.88842452      10.88842452      -0.00000000
7
Lattice="1.8147374208134635 3.629474841626927 1.8147374208134635 5.444212262440391 3.629474841626927 1.8147374208134635 12.703161945694244 12.703161945694244 -4.1764172628484596e-18" Properties=species:S:1:pos:R:3 mixing_energy=0.038063204788914264 energy=-34.681807474002724 pbc="T T T"
Cu       0.00000000       0.00000000       0.00000000
Ni       1.81473742       1.81473742      -0.00000000
Ni       3.62947484       3.62947484      -0.00000000
Cu       5.44421226       5.44421226      -0.00000000
Ni       7.25894968       7.25894968      -0.00000000
Ni       9.07368710       9.07368710      -0.00000000
Ni      10.88842452      10.88842452      -0.00000000
7
Lattice="1.8147374208134635 3.629474841626927 1.8147374208134635 5.444212262440391 3.629474841626927 1.8147374208134635 12.703161945694244 12.703161945694244 -4.1764172628484596e-18" Properties=species:S:1:pos:R:3 mixing_energy=0.023907122004327368 energy=-36.52569395914653 pbc="T T T"
Cu       0.00000000       0.00000000       0.00000000
Ni       1.81473742       1.81473742      -0.00000000
Ni       3.62947484       3.62947484      -0.00000000
Ni       5.44421226       5.44421226      -0.00000000
Ni       7.25894968       7.25894968      -0.00000000
Ni       9.07368710       9.07368710      -0.00000000
Ni      10.88842452      10.88842452      -0.00000000
7
Lattice="1.8147374208134635 3.629474841626927 1.8147374208134635 7.258949683253854 5.444212262440391 1.8147374208134635 12.703161945694244 12.703161945694244 -4.1764172628484596e-18" Properties=species:S:1:pos:R:3 mixing_energy=0.0048040005938390406 energy=-27.935446280761436 pbc="T T T"
Cu       0.00000000       0.00000000       0.00000000
Cu       1.81473742       1.81473742      -0.00000000
Cu       3.62947484       3.62947484      -0.00000000
Cu       5.44421226       5.44421226      -0.00000000
Cu       7.25894968       7.25894968      -0.00000000
Cu       9.07368710       9.07368710      -0.00000000
Ni      10.88842452      10.88842452      -0.00000000
7
Lattice="1.8147374208134635 3.629474841626927 1.8147374208134635 7.258949683253854 5.444212262440391 1.8147374208134635 12.703161945694244 12.703161945694244 -4.1764172628484596e-18" Properties=species:S:1:pos:R:3 mixing_energy=0.015204829330301857 energy=-29.6074343852579 pbc="T T T"
Cu       0.00000000       0.00000000       0.00000000
Cu       1.81473742       1.81473742      -0.00000000
Cu       3.62947484       3.62947484      -0.00000000
Cu       5.44421226       5.44421226      -0.00000000
Cu       7.25894968       7.25894968      -0.00000000
Ni       9.07368710       9.07368710      -0.00000000
Ni      10.88842452      10.88842452      -0.00000000
7
Lattice="1.8147374208134635 3.629474841626927 1.8147374208134635 7.258949683253854 5.444212262440391 1.8147374208134635 12.703161945694244 12.703161945694244 -4.1764172628484596e-18" Properties=species:S:1:pos:R:3 mixing_energy=0.02710547722358316 energy=-31.268923755656633 pbc="T T T"
Cu       0.00000000       0.00000000       0.00000000
Cu       1.81473742       1.81473742      -0.00000000
Cu       3.62947484       3.62947484      -0.00000000
Cu       5.44421226       5.44421226      -0.00000000
Ni       7.25894968       7.25894968      -0.00000000
Ni       9.07368710       9.07368710      -0.00000000
Ni      10.88842452      10.88842452      -0.00000000
7
Lattice="1.8147374208134635 3.629474841626927 1.8147374208134635 7.258949683253854 5.444212262440391 1.8147374208134635 12.703161945694244 12.703161945694244 -4.1764172628484596e-18" Properties=species:S:1:pos:R:3 mixing_energy=0.026783570719068957 energy=-31.271177101188233 pbc="T T T"
Cu       0.00000000       0.00000000       0.00000000
Cu       1.81473742       1.81473742      -0.00000000
Cu       3.62947484       3.62947484      -0.00000000
Ni       5.44421226       5.44421226      -0.00000000
Cu       7.25894968       7.25894968      -0.00000000
Ni       9.07368710       9.07368710      -0.00000000
Ni      10.88842452      10.88842452      -0.00000000
7
Lattice="1.8147374208134635 3.629474841626927 1.8147374208134635 7.258949683253854 5.444212262440391 1.8147374208134635 12.703161945694244 12.703161945694244 -4.1764172628484596e-18" Properties=species:S:1:pos:R:3 mixing_energy=0.034551873020464745 energy=-32.96159289073017 pbc="T T T"
Cu       0.00000000       0.00000000       0.00000000
Cu       1.81473742       1.81473742      -0.00000000
Cu       3.62947484       3.62947484      -0.00000000
Ni       5.44421226       5.44421226      -0.00000000
Ni       7.25894968       7.25894968      -0.00000000
Ni       9.07368710       9.07368710      -0.00000000
Ni      10.88842452      10.88842452      -0.00000000
7
Lattice="1.8147374208134635 3.629474841626927 1.8147374208134635 7.258949683253854 5.444212262440391 1.8147374208134635 12.703161945694244 12.703161945694244 -4.1764172628484596e-18" Properties=species:S:1:pos:R:3 mixing_energy=0.03518358457226104 energy=-32.95717090986759 pbc="T T T"
Cu       0.00000000       0.00000000       0.00000000
Cu       1.81473742       1.81473742      -0.00000000
Ni       3.62947484       3.62947484      -0.00000000
Cu       5.44421226       5.44421226      -0.00000000
Ni       7.25894968       7.25894968      -0.00000000
Ni       9.07368710       9.07368710      -0.00000000
Ni      10.88842452      10.88842452      -0.00000000
7
Lattice="1.8147374208134635 3.629474841626927 1.8147374208134635 7.258949683253854 5.444212262440391 1.8147374208134635 12.703161945694244 12.703161945694244 -4.1764172628484596e-18" Properties=species:S:1:pos:R:3 mixing_energy=0.034569681003274254 energy=-34.706262140502204 pbc="T T T"
Cu       0.00000000       0.00000000       0.00000000
Cu       1.81473742       1.81473742      -0.00000000
Ni       3.62947484       3.62947484      -0.00000000
Ni       5.44421226       5.44421226      -0.00000000
Ni       7.25894968       7.25894968      -0.00000000
Ni       9.07368710       9.07368710      -0.00000000
Ni      10.88842452      10.88842452      -0.00000000
7
Lattice="1.8147374208134635 3.629474841626927 1.8147374208134635 7.258949683253854 5.444212262440391 1.8147374208134635 12.703161945694244 12.703161945694244 -4.1764172628484596e-18" Properties=species:S:1:pos:R:3 mixing_energy=0.0236416600898102 energy=-36.52755219254815 pbc="T T T"
Cu       0.00000000       0.00000000       0.00000000
Ni       1.81473742       1.81473742      -0.00000000
Ni       3.62947484       3.62947484      -0.00000000
Ni       5.44421226       5.44421226      -0.00000000
Ni       7.25894968       7.25894968      -0.00000000
Ni       9.07368710       9.07368710      -0.00000000
Ni      10.88842452      10.88842452      -0.00000000
8
Lattice="1.8091173701940726e-18 1.8147374208134635 1.8147374208134635 1.8147374208134635 8.656940495179077e-18 1.8147374208134635 14.517899366507708 14.517899366507708 -4.773048300398239e-18" Properties=species:S:1:pos:R:3 mixing_energy=0.00469521060396072 energy=-31.67783836855328 pbc="T T T"
Cu       0.00000000       0.00000000       0.00000000
Cu       1.81473742       1.81473742      -0.00000000
Cu       3.62947484       3.62947484      -0.00000000
Cu       5.44421226       5.44421226      -0.00000000
Cu       7.25894968       7.25894968      -0.00000000
Cu       9.07368710       9.07368710      -0.00000000
Cu      10.88842452      10.88842452      -0.00000000
Ni      12.70316195      12.70316195      -0.00000000
8
Lattice="1.8091173701940726e-18 1.8147374208134635 1.8147374208134635 1.8147374208134635 8.656940495179077e-18 1.8147374208134635 14.517899366507708 14.517899366507708 -4.773048300398239e-18" Properties=species:S:1:pos:R:3 mixing_energy=0.010177365581048425 energy=-33.37877503438828 pbc="T T T"
Cu       0.00000000       0.00000000       0.00000000
Cu       1.81473742       1.81473742      -0.00000000
Cu       3.62947484       3.62947484      -0.00000000
Cu       5.44421226       5.44421226      -0.00000000
Cu       7.25894968       7.25894968      -0.00000000
Cu       9.07368710       9.07368710      -0.00000000
Ni      10.88842452      10.88842452      -0.00000000
Ni      12.70316195      12.70316195      -0.00000000
8
Lattice="1.8091173701940726e-18 1.8147374208134635 1.8147374208134635 1.8147374208134635 8.656940495179077e-18 1.8147374208134635 14.517899366507708 14.517899366507708 -4.773048300398239e-18" Properties=species:S:1:pos:R:3 mixing_energy=0.01046554027727331 energy=-33.376469636818484 pbc="T T T"
Cu       0.00000000       0.00000000       0.00000000
Cu       1.81473742       1.81473742      -0.00000000
Cu       3.62947484       3.62947484      -0.00000000
Cu       5.44421226       5.44421226      -0.00000000
Cu       7.25894968       7.25894968      -0.00000000
Ni       9.07368710       9.07368710      -0.00000000
Cu      10.88842452      10.88842452      -0.00000000
Ni      12.70316195      12.70316195      -0.00000000
8
Lattice="1.8091173701940726e-18 1.8147374208134635 1.8147374208134635 1.8147374208134635 8.656940495179077e-18 1.8147374208134635 14.517899366507708 14.517899366507708 -4.773048300398239e-18" Properties=species:S:1:pos:R:3 mixing_energy=0.010866791989148528 energy=-35.118053528775185 pbc="T T T"
Cu       0.00000000       0.00000000       0.00000000
Cu       1.81473742       1.81473742      -0.00000000
Cu       3.62947484       3.62947484      -0.00000000
Cu       5.44421226       5.44421226      -0.00000000
Cu       7.25894968       7.25894968      -0.00000000
Ni       9.07368710       9.07368710      -0.00000000
Ni      10.88842452      10.88842452      -0.00000000
Ni      12.70316195      12.70316195      -0.00000000
8
Lattice="1.8091173701940726e-18 1.8147374208134635 1.8147374208134635 1.8147374208134635 8.656940495179077e-18 1.8147374208134635 14.517899366507708 14.517899366507708 -4.773048300398239e-18" Properties=species:S:1:pos:R:3 mixing_energy=0.008445764469394268 energy=-33.39262784328152 pbc="T T T"
Cu       0.00000000       0.00000000       0.00000000
Cu       1.81473742       1.81473742      -0.00000000
Cu       3.62947484       3.62947484      -0.00000000
Cu       5.44421226       5.44421226      -0.00000000
Ni       7.25894968       7.25894968      -0.00000000
Cu       9.07368710       9.07368710      -0.00000000
Cu      10.88842452      10.88842452      -0.00000000
Ni      12.70316195      12.70316195      -0.00000000
8
Lattice="1.8091173701940726e-18 1.8147374208134635 1.8147374208134635 1.8147374208134635 8.656940495179077e-18 1.8147374208134635 14.517899366507708 14.517899366507708 -4.773048300398239e-18" Properties=species:S:1:pos:R:3 mixing_energy=0.014762218228896895 energy=-35.0868901188572 pbc="T T T"
Cu       0.00000000       0.00000000       0.00000000
Cu       1.81473742       1.81473742      -0.00000000
Cu       3.62947484       3.62947484      -0.00000000
Cu       5.44421226       5.44421226      -0.00000000
Ni       7.25894968       7.25894968      -0.00000000
Cu       9.07368710       9.07368710      -0.00000000
Ni      10.88842452      10.88842452      -0.00000000
Ni      12.70316195      12.70316195      -0.00000000
8
Lattice="1.8091173701940726e-18 1.8147374208134635 1.8147374208134635 1.8147374208134635 8.656940495179077e-18 1.8147374208134635 14.517899366507708 14.517899366507708 -4.773048300398239e-18" Properties=species:S:1:pos:R:3 mixing_energy=0.010596264648256248 energy=-36.86501165315403 pbc="T T T"
Cu       0.00000000       0.00000000       0.00000000
Cu       1.81473742       1.81473742      -0.00000000
Cu       3.62947484       3.62947484      -0.00000000
Cu       5.44421226       5.44421226      -0.00000000
Ni       7.25894968       7.25894968      -0.00000000
Ni       9.07368710       9.07368710      -0.00000000
Ni      10.88842452      10.88842452      -0.00000000
Ni      12.70316195      12.70316195      -0.00000000
8
Lattice="1.8091173701940726e-18 1.8147374208134635 1.8147374208134635 1.8147374208134635 8.656940495179077e-18 1.8147374208134635 14.517899366507708 14.517899366507708 -4.773048300398239e-18" Properties=species:S:1:pos:R:3 mixing_energy=0.012130093025185307 energy=-35.10794712048689 pbc="T T T"
Cu       0.00000000       0.00000000       0.00000000
Cu       1.81473742       1.81473742      -0.00000000
Cu       3.62947484       3.62947484      -0.00000000
Ni       5.44421226       5.44421226      -0.00000000
Cu       7.25894968       7.25894968      -0.00000000
Cu       9.07368710       9.07368710      -0.00000000
Ni      10.88842452      10.88842452      -0.00000000
Ni      12.70316195      12.70316195      -0.00000000
8
Lattice="1.8091173701940726e-18 1.8147374208134635 1.8147374208134635 1.8147374208134635 8.656940495179077e-18 1.8147374208134635 14.517899366507708 14.517899366507708 -4.773048300398239e-18" Properties=species:S:1:pos:R:3 mixing_energy=0.014802382896811128 energy=-35.086568801513884 pbc="T T T"
Cu       0.00000000       0.00000000       0.00000000
Cu       1.81473742       1.81473742      -0.00000000
Cu       3.62947484       3.62947484      -0.00000000
Ni       5.44421226       5.44421226      -0.00000000
Cu       7.25894968       7.25894968      -0.00000000
Ni       9.07368710       9.07368710      -0.00000000
Cu      10.88842452      10.88842452      -0.00000000
Ni      12.70316195      12.70316195      -0.00000000
8
Lattice="1.8091173701940726e-18 1.8147374208134635 1.8147374208134635 1.8147374208134635 8.656940495179077e-18 1.8147374208134635 14.517899366507708 14.517899366507708 -4.773048300398239e-18" Properties=species:S:1:pos:R:3 mixing_energy=0.014432394923151737 energy=-36.834322610954864 pbc="T T T"
Cu       0.00000000       0.00000000       0.00000000
Cu       1.81473742       1.81473742      -0.00000000
Cu       3.62947484       3.62947484      -0.00000000
Ni       5.44421226       5.44421226      -0.00000000
Cu       7.25894968       7.25894968      -0.00000000
Ni       9.07368710       9.07368710      -0.00000000
Ni      10.88842452      10.88842452      -0.00000000
Ni      12.70316195      12.70316195      -0.00000000
8
Lattice="1.8091173701940726e-18 1.8147374208134635 1.8147374208134635 1.8147374208134635 8.656940495179077e-18 1.8147374208134635 14.517899366507708 14.517899366507708 -4.773048300398239e-18" Properties=species:S:1:pos:R:3 mixing_energy=0.017750976862735524 energy=-36.80777395543819 pbc="T T T"
Cu       0.00000000       0.00000000       0.00000000
Cu       1.81473742       1.81473742      -0.00000000
Cu       3.62947484       3.62947484      -0.00000000
Ni       5.44421226       5.44421226      -0.00000000
Ni       7.25894968       7.25894968      -0.00000000
Cu       9.07368710       9.07368710      -0.00000000
Ni      10.88842452      10.88842452      -0.00000000
Ni      12.70316195      12.70316195      -0.00000000
8
Lattice="1.8091173701940726e-18 1.8147374208134635 1.8147374208134635 1.8147374208134635 8.656940495179077e-18 1.8147374208134635 14.517899366507708 14.517899366507708 -4.773048300398239e-18" Properties=species:S:1:pos:R:3 mixing_energy=0.009678870622185531 energy=-38.6171447110143 pbc="T T T"
Cu       0.00000000       0.00000000       0.00000000
Cu       1.81473742       1.81473742      -0.00000000
Cu       3.62947484       3.62947484      -0.00000000
Ni       5.44421226       5.44421226      -0.00000000
Ni       7.25894968       7.25894968      -0.00000000
Ni       9.07368710       9.07368710      -0.00000000
Ni      10.88842452      10.88842452      -0.00000000
Ni      12.70316195      12.70316195      -0.00000000
8
Lattice="1.8091173701940726e-18 1.8147374208134635 1.8147374208134635 1.8147374208134635 8.656940495179077e-18 1.8147374208134635 14.517899366507708 14.517899366507708 -4.773048300398239e-18" Properties=species:S:1:pos:R:3 mixing_energy=0.013342162655165968 energy=-35.098250563447046 pbc="T T T"
Cu       0.00000000       0.00000000       0.00000000
Cu       1.81473742       1.81473742      -0.00000000
Ni       3.62947484       3.62947484      -0.00000000
Cu       5.44421226       5.44421226      -0.00000000
Cu       7.25894968       7.25894968      -0.00000000
Ni       9.07368710       9.07368710      -0.00000000
Cu      10.88842452      10.88842452      -0.00000000
Ni      12.70316195      12.70316195      -0.00000000
8
Lattice="1.8091173701940726e-18 1.8147374208134635 1.8147374208134635 1.8147374208134635 8.656940495179077e-18 1.8147374208134635 14.517899366507708 14.517899366507708 -4.773048300398239e-18" Properties=species:S:1:pos:R:3 mixing_energy=0.01227856121832227 energy=-36.8515532805935 pbc="T T T"
Cu       0.00000000       0.00000000       0.00000000
Cu       1.81473742       1.81473742      -0.00000000
Ni       3.62947484       3.62947484      -0.00000000
Cu       5.44421226       5.44421226      -0.00000000
Cu       7.25894968       7.25894968      -0.00000000
Ni       9.07368710       9.07368710      -0.00000000
Ni      10.88842452      10.88842452      -0.00000000
Ni      12.70316195      12.70316195      -0.00000000
8
Lattice="1.8091173701940726e-18 1.8147374208134635 1.8147374208134635 1.8147374208134635 8.656940495179077e-18 1.8147374208134635 14.517899366507708 14.517899366507708 -4.773048300398239e-18" Properties=species:S:1:pos:R:3 mixing_energy=0.01856741174718257 energy=-36.80124247636262 pbc="T T T"
Cu       0.00000000       0.00000000       0.00000000
Cu       1.81473742       1.81473742      -0.00000000
Ni       3.62947484       3.62947484      -0.00000000
Cu       5.44421226       5.44421226      -0.00000000
Ni       7.25894968       7.25894968      -0.00000000
Cu       9.07368710       9.07368710      -0.00000000
Ni      10.88842452      10.88842452      -0.00000000
Ni      12.70316195      12.70316195      -0.00000000
8
Lattice="1.8091173701940726e-18 1.8147374208134635 1.8147374208134635 1.8147374208134635 8.656940495179077e-18 1.8147374208134635 14.517899366507708 14.517899366507708 -4.773048300398239e-18" Properties=species:S:1:pos:R:3 mixing_energy=0.018496101610531834 energy=-36.80181295745582 pbc="T T T"
Cu       0.00000000       0.00000000       0.00000000
Cu       1.81473742       1.81473742      -0.00000000
Ni       3.62947484       3.62947484      -0.00000000
Cu       5.44421226       5.44421226      -0.00000000
Ni       7.25894968       7.25894968      -0.00000000
Ni       9.07368710       9.07368710      -0.00000000
Cu      10.88842452      10.88842452      -0.00000000
Ni      12.70316195      12.70316195      -0.00000000
8
Lattice="1.8091173701940726e-18 1.8147374208134635 1.8147374208134635 1.8147374208134635 8.656940495179077e-18 1.8147374208134635 14.517899366507708 14.517899366507708 -4.773048300398239e-18" Properties=species:S:1:pos:R:3 mixing_energy=0.013609512474956897 energy=-38.58569957619213 pbc="T T T"
Cu       0.00000000       0.00000000       0.00000000
Cu       1.81473742       1.81473742      -0.00000000
Ni       3.62947484       3.62947484      -0.00000000
Cu       5.44421226       5.44421226      -0.00000000
Ni       7.25894968       7.25894968      -0.00000000
Ni       9.07368710       9.07368710      -0.00000000
Ni      10.88842452      10.88842452      -0.00000000
Ni      12.70316195      12.70316195      -0.00000000
8
Lattice="1.8091173701940726e-18 1.8147374208134635 1.8147374208134635 1.8147374208134635 8.656940495179077e-18 1.8147374208134635 14.517899366507708 14.517899366507708 -4.773048300398239e-18" Properties=species:S:1:pos:R:3 mixing_energy=0.01705625378996123 energy=-38.55812564567209 pbc="T T T"
Cu       0.00000000       0.00000000       0.00000000
Cu       1.81473742       1.81473742      -0.00000000
Ni       3.62947484       3.62947484      -0.00000000
Ni       5.44421226       5.44421226      -0.00000000
Cu       7.25894968       7.25894968      -0.00000000
Ni       9.07368710       9.07368710      -0.00000000
Ni      10.88842452      10.88842452      -0.00000000
Ni      12.70316195      12.70316195      -0.00000000
8
Lattice="1.8091173701940726e-18 1.8147374208134635 1.8147374208134635 1.8147374208134635 8.656940495179077e-18 1.8147374208134635 14.517899366507708 14.517899366507708 -4.773048300398239e-18" Properties=species:S:1:pos:R:3 mixing_energy=0.0083632727567311 energy=-40.372463399589634 pbc="T T T"
Cu       0.00000000       0.00000000       0.00000000
Cu       1.81473742       1.81473742      -0.00000000
Ni       3.62947484       3.62947484      -0.00000000
Ni       5.44421226       5.44421226      -0.00000000
Ni       7.25894968       7.25894968      -0.00000000
Ni       9.07368710       9.07368710      -0.00000000
Ni      10.88842452      10.88842452      -0.00000000
Ni      12.70316195      12.70316195      -0.00000000
8
Lattice="1.8091173701940726e-18 1.8147374208134635 1.8147374208134635 1.8147374208134635 8.656940495179077e-18 1.8147374208134635 14.517899366507708 14.517899366507708 -4.773048300398239e-18" Properties=species:S:1:pos:R:3 mixing_energy=0.020471073844682497 energy=-38.53080708523432 pbc="T T T"
Cu       0.00000000       0.00000000       0.00000000
Ni       1.81473742       1.81473742      -0.00000000
Cu       3.62947484       3.62947484      -0.00000000
Ni       5.44421226       5.44421226      -0.00000000
Cu       7.25894968       7.25894968      -0.00000000
Ni       9.07368710       9.07368710      -0.00000000
Ni      10.88842452      10.88842452      -0.00000000
Ni      12.70316195      12.70316195      -0.00000000
8
Lattice="1.8091173701940726e-18 1.8147374208134635 1.8147374208134635 1.8147374208134635 8.656940495179077e-18 1.8147374208134635 14.517899366507708 14.517899366507708 -4.773048300398239e-18" Properties=species:S:1:pos:R:3 mixing_energy=0.02298949245895221 energy=-38.510659736320164 pbc="T T T"
Cu       0.00000000       0.00000000       0.00000000
Ni       1.81473742       1.81473742      -0.00000000
Cu       3.62947484       3.62947484      -0.00000000
Ni       5.44421226       5.44421226      -0.00000000
Ni       7.25894968       7.25894968      -0.00000000
Cu       9.07368710       9.07368710      -0.00000000
Ni      10.88842452      10.88842452      -0.00000000
Ni      12.70316195      12.70316195      -0.00000000
8
Lattice="1.8091173701940726e-18 1.8147374208134635 1.8147374208134635 1.8147374208134635 8.656940495179077e-18 1.8147374208134635 14.517899366507708 14.517899366507708 -4.773048300398239e-18" Properties=species:S:1:pos:R:3 mixing_energy=0.014881466118841224 energy=-40.32031785269275 pbc="T T T"
Cu       0.00000000       0.00000000       0.00000000
Ni       1.81473742       1.81473742      -0.00000000
Cu       3.62947484       3.62947484      -0.00000000
Ni       5.44421226       5.44421226      -0.00000000
Ni       7.25894968       7.25894968      -0.00000000
Ni       9.07368710       9.07368710      -0.00000000
Ni      10.88842452      10.88842452      -0.00000000
Ni      12.70316195      12.70316195      -0.00000000
8
Lattice="1.8091173701940726e-18 1.8147374208134635 1.8147374208134635 1.8147374208134635 8.656940495179077e-18 1.8147374208134635 14.517899366507708 14.517899366507708 -4.773048300398239e-18" Properties=species:S:1:pos:R:3 mixing_energy=0.017587807826956237 energy=-40.29866711902783 pbc="T T T"
Cu       0.00000000       0.00000000       0.00000000
Ni       1.81473742       1.81473742      -0.00000000
Ni       3.62947484       3.62947484      -0.00000000
Cu       5.44421226       5.44421226      -0.00000000
Ni       7.25894968       7.25894968      -0.00000000
Ni       9.07368710       9.07368710      -0.00000000
Ni      10.88842452      10.88842452      -0.00000000
Ni      12.70316195      12.70316195      -0.00000000
8
Lattice="1.8091173701940726e-18 1.8147374208134635 1.8147374208134635 1.8147374208134635 8.656940495179077e-18 1.8147374208134635 14.517899366507708 14.517899366507708 -4.773048300398239e-18" Properties=species:S:1:pos:R:3 mixing_energy=0.009046159598039338 energy=-42.11179421051088 pbc="T T T"
Cu       0.00000000       0.00000000       0.00000000
Ni       1.81473742       1.81473742      -0.00000000
Ni       3.62947484       3.62947484      -0.00000000
Ni       5.44421226       5.44421226      -0.00000000
Ni       7.25894968       7.25894968      -0.00000000
Ni       9.07368710       9.07368710      -0.00000000
Ni      10.88842452      10.88842452      -0.00000000
Ni      12.70316195      12.70316195      -0.00000000
8
Lattice="1.8091173701940726e-18 1.8147374208134635 1.8147374208134635 3.629474841626927 1.8147374208134635 1.8147374208134635 14.517899366507708 14.517899366507708 -4.773048300398239e-18" Properties=species:S:1:pos:R:3 mixing_energy=0.005848444942807229 energy=-31.66861249384251 pbc="T T T"
Cu       0.00000000       0.00000000       0.00000000
Cu       1.81473742       1.81473742      -0.00000000
Cu       3.62947484       3.62947484      -0.00000000
Cu       5.44421226       5.44421226      -0.00000000
Cu       7.25894968       7.25894968      -0.00000000
Cu       9.07368710       9.07368710      -0.00000000
Cu      10.88842452      10.88842452      -0.00000000
Ni      12.70316195      12.70316195      -0.00000000
8
Lattice="1.8091173701940726e-18 1.8147374208134635 1.8147374208134635 3.629474841626927 1.8147374208134635 1.8147374208134635 14.517899366507708 14.517899366507708 -4.773048300398239e-18" Properties=species:S:1:pos:R:3 mixing_energy=0.011241646759864166 energy=-33.37026078495776 pbc="T T T"
Cu       0.00000000       0.00000000       0.00000000
Cu       1.81473742       1.81473742      -0.00000000
Cu       3.62947484       3.62947484      -0.00000000
Cu       5.44421226       5.44421226      -0.00000000
Cu       7.25894968       7.25894968      -0.00000000
Cu       9.07368710       9.07368710      -0.00000000
Ni      10.88842452      10.88842452      -0.00000000
Ni      12.70316195      12.70316195      -0.00000000
8
Lattice="1.8091173701940726e-18 1.8147374208134635 1.8147374208134635 3.629474841626927 1.8147374208134635 1.8147374208134635 14.517899366507708 14.517899366507708 -4.773048300398239e-18" Properties=species:S:1:pos:R:3 mixing_energy=0.015935501330799573 energy=-33.332709948390274 pbc="T T T"
Cu       0.00000000       0.00000000       0.00000000
Cu       1.81473742       1.81473742      -0.00000000
Cu       3.62947484       3.62947484      -0.00000000
Cu       5.44421226       5.44421226      -0.00000000
Cu       7.25894968       7.25894968      -0.00000000
Ni       9.07368710       9.07368710      -0.00000000
Cu      10.88842452      10.88842452      -0.00000000
Ni      12.70316195      12.70316195      -0.00000000
8
Lattice="1.8091173701940726e-18 1.8147374208134635 1.8147374208134635 3.629474841626927 1.8147374208134635 1.8147374208134635 14.517899366507708 14.517899366507708 -4.773048300398239e-18" Properties=species:S:1:pos:R:3 mixing_energy=0.015588665684817204 energy=-35.080278539209836 pbc="T T T"
Cu       0.00000000       0.00000000       0.00000000
Cu       1.81473742       1.81473742      -0.00000000
Cu       3.62947484       3.62947484      -0.00000000
Cu       5.44421226       5.44421226      -0.00000000
Cu       7.25894968       7.25894968      -0.00000000
Ni       9.07368710       9.07368710      -0.00000000
Ni      10.88842452      10.88842452      -0.00000000
Ni      12.70316195      12.70316195      -0.00000000
8
Lattice="1.8091173701940726e-18 1.8147374208134635 1.8147374208134635 3.629474841626927 1.8147374208134635 1.8147374208134635 14.517899366507708 14.517899366507708 -4.773048300398239e-18" Properties=species:S:1:pos:R:3 mixing_energy=0.01440933009192924 energy=-33.34491931830124 pbc="T T T"
Cu       0.00000000       0.00000000       0.00000000
Cu       1.81473742       1.81473742      -0.00000000
Cu       3.62947484       3.62947484      -0.00000000
Cu       5.44421226       5.44421226      -0.00000000
Ni       7.25894968       7.25894968      -0.00000000
Cu       9.07368710       9.07368710      -0.00000000
Cu      10.88842452      10.88842452      -0.00000000
Ni      12.70316195      12.70316195      -0.00000000
8
Lattice="1.8091173701940726e-18 1.8147374208134635 1.8147374208134635 3.629474841626927 1.8147374208134635 1.8147374208134635 14.517899366507708 14.517899366507708 -4.773048300398239e-18" Properties=species:S:1:pos:R:3 mixing_energy=0.020474847168168164 energy=-35.04118908734303 pbc="T T T"
Cu       0.00000000       0.00000000       0.00000000
Cu       1.81473742       1.81473742      -0.00000000
Cu       3.62947484       3.62947484      -0.00000000
Cu       5.44421226       5.44421226      -0.00000000
Ni       7.25894968       7.25894968      -0.00000000
Cu       9.07368710       9.07368710      -0.00000000
Ni      10.88842452      10.88842452      -0.00000000
Ni      12.70316195      12.70316195      -0.00000000
8
Lattice="1.8091173701940726e-18 1.8147374208134635 1.8147374208134635 3.629474841626927 1.8147374208134635 1.8147374208134635 14.517899366507708 14.517899366507708 -4.773048300398239e-18" Properties=species:S:1:pos:R:3 mixing_energy=0.0162537077044429 energy=-36.819752108704535 pbc="T T T"
Cu       0.00000000       0.00000000       0.00000000
Cu       1.81473742       1.81473742      -0.00000000
Cu       3.62947484       3.62947484      -0.00000000
Cu       5.44421226       5.44421226      -0.00000000
Ni       7.25894968       7.25894968      -0.00000000
Ni       9.07368710       9.07368710      -0.00000000
Ni      10.88842452      10.88842452      -0.00000000
Ni      12.70316195      12.70316195      -0.00000000
8
Lattice="1.8091173701940726e-18 1.8147374208134635 1.8147374208134635 3.629474841626927 1.8147374208134635 1.8147374208134635 14.517899366507708 14.517899366507708 -4.773048300398239e-18" Properties=species:S:1:pos:R:3 mixing_energy=0.019475027816471258 energy=-35.0491876421566 pbc="T T T"
Cu       0.00000000       0.00000000       0.00000000
Cu       1.81473742       1.81473742      -0.00000000
Cu       3.62947484       3.62947484      -0.00000000
Ni       5.44421226       5.44421226      -0.00000000
Cu       7.25894968       7.25894968      -0.00000000
Cu       9.07368710       9.07368710      -0.00000000
Ni      10.88842452      10.88842452      -0.00000000
Ni      12.70316195      12.70316195      -0.00000000
8
Lattice="1.8091173701940726e-18 1.8147374208134635 1.8147374208134635 3.629474841626927 1.8147374208134635 1.8147374208134635 14.517899366507708 14.517899366507708 -4.773048300398239e-18" Properties=species:S:1:pos:R:3 mixing_energy=0.025869720190161427 energy=-34.99803010316708 pbc="T T T"
Cu       0.00000000       0.00000000       0.00000000
Cu       1.81473742       1.81473742      -0.00000000
Cu       3.62947484       3.62947484      -0.00000000
Ni       5.44421226       5.44421226      -0.00000000
Cu       7.25894968       7.25894968      -0.00000000
Ni       9.07368710       9.07368710      -0.00000000
Cu      10.88842452      10.88842452      -0.00000000
Ni      12.70316195      12.70316195      -0.00000000
8
Lattice="1.8091173701940726e-18 1.8147374208134635 1.8147374208134635 3.629474841626927 1.8147374208134635 1.8147374208134635 14.517899366507708 14.517899366507708 -4.773048300398239e-18" Properties=species:S:1:pos:R:3 mixing_energy=0.023779032496743735 energy=-36.75954951036613 pbc="T T T"
Cu       0.00000000       0.00000000       0.00000000
Cu       1.81473742       1.81473742      -0.00000000
Cu       3.62947484       3.62947484      -0.00000000
Ni       5.44421226       5.44421226      -0.00000000
Cu       7.25894968       7.25894968      -0.00000000
Ni       9.07368710       9.07368710      -0.00000000
Ni      10.88842452      10.88842452      -0.00000000
Ni      12.70316195      12.70316195      -0.00000000
8
Lattice="1.8091173701940726e-18 1.8147374208134635 1.8147374208134635 3.629474841626927 1.8147374208134635 1.8147374208134635 14.517899366507708 14.517899366507708 -4.773048300398239e-18" Properties=species:S:1:pos:R:3 mixing_energy=0.024552037281100336 energy=-36.753365472091275 pbc="T T T"
Cu       0.00000000       0.00000000       0.00000000
Cu       1.81473742       1.81473742      -0.00000000
Cu       3.62947484       3.62947484      -0.00000000
Ni       5.44421226       5.44421226      -0.00000000
Ni       7.25894968       7.25894968      -0.00000000
Cu       9.07368710       9.07368710      -0.00000000
Ni      10.88842452      10.88842452      -0.00000000
Ni      12.70316195      12.70316195      -0.00000000
8
Lattice="1.8091173701940726e-18 1.8147374208134635 1.8147374208134635 3.629474841626927 1.8147374208134635 1.8147374208134635 14.517899366507708 14.517899366507708 -4.773048300398239e-18" Properties=species:S:1:pos:R:3 mixing_energy=0.01544578242035799 energy=-38.57100941662892 pbc="T T T"
Cu       0.00000000       0.00000000       0.00000000
Cu       1.81473742       1.81473742      -0.00000000
Cu       3.62947484       3.62947484      -0.00000000
Ni       5.44421226       5.44421226      -0.00000000
Ni       7.25894968       7.25894968      -0.00000000
Ni       9.07368710       9.07368710      -0.00000000
Ni      10.88842452      10.88842452      -0.00000000
Ni      12.70316195      12.70316195      -0.00000000
8
Lattice="1.8091173701940726e-18 1.8147374208134635 1.8147374208134635 3.629474841626927 1.8147374208134635 1.8147374208134635 14.517899366507708 14.517899366507708 -4.773048300398239e-18" Properties=species:S:1:pos:R:3 mixing_energy=0.027749154969664236 energy=-34.98299462493106 pbc="T T T"
Cu       0.00000000       0.00000000       0.00000000
Cu       1.81473742       1.81473742      -0.00000000
Ni       3.62947484       3.62947484      -0.00000000
Cu       5.44421226       5.44421226      -0.00000000
Cu       7.25894968       7.25894968      -0.00000000
Ni       9.07368710       9.07368710      -0.00000000
Cu      10.88842452      10.88842452      -0.00000000
Ni      12.70316195      12.70316195      -0.00000000
8
Lattice="1.8091173701940726e-18 1.8147374208134635 1.8147374208134635 3.629474841626927 1.8147374208134635 1.8147374208134635 14.517899366507708 14.517899366507708 -4.773048300398239e-18" Properties=species:S:1:pos:R:3 mixing_energy=0.02622446169476822 energy=-36.73998607678193 pbc="T T T"
Cu       0.00000000       0.00000000       0.00000000
Cu       1.81473742       1.81473742      -0.00000000
Ni       3.62947484       3.62947484      -0.00000000
Cu       5.44421226       5.44421226      -0.00000000
Cu       7.25894968       7.25894968      -0.00000000
Ni       9.07368710       9.07368710      -0.00000000
Ni      10.88842452      10.88842452      -0.00000000
Ni      12.70316195      12.70316195      -0.00000000
8
Lattice="1.8091173701940726e-18 1.8147374208134635 1.8147374208134635 3.629474841626927 1.8147374208134635 1.8147374208134635 14.517899366507708 14.517899366507708 -4.773048300398239e-18" Properties=species:S:1:pos:R:3 mixing_energy=0.033119271799486594 energy=-36.684827595944185 pbc="T T T"
Cu       0.00000000       0.00000000       0.00000000
Cu       1.81473742       1.81473742      -0.00000000
Ni       3.62947484       3.62947484      -0.00000000
Cu       5.44421226       5.44421226      -0.00000000
Ni       7.25894968       7.25894968      -0.00000000
Cu       9.07368710       9.07368710      -0.00000000
Ni      10.88842452      10.88842452      -0.00000000
Ni      12.70316195      12.70316195      -0.00000000
8
Lattice="1.8091173701940726e-18 1.8147374208134635 1.8147374208134635 3.629474841626927 1.8147374208134635 1.8147374208134635 14.517899366507708 14.517899366507708 -4.773048300398239e-18" Properties=species:S:1:pos:R:3 mixing_energy=0.03353759530058431 energy=-36.6814810079354 pbc="T T T"
Cu       0.00000000       0.00000000       0.00000000
Cu       1.81473742       1.81473742      -0.00000000
Ni       3.62947484       3.62947484      -0.00000000
Cu       5.44421226       5.44421226      -0.00000000
Ni       7.25894968       7.25894968      -0.00000000
Ni       9.07368710       9.07368710      -0.00000000
Cu      10.88842452      10.88842452      -0.00000000
Ni      12.70316195      12.70316195      -0.00000000
8
Lattice="1.8091173701940726e-18 1.8147374208134635 1.8147374208134635 3.629474841626927 1.8147374208134635 1.8147374208134635 14.517899366507708 14.517899366507708 -4.773048300398239e-18" Properties=species:S:1:pos:R:3 mixing_energy=0.027765998308030948 energy=-38.472447689527534 pbc="T T T"
Cu       0.00000000       0.00000000       0.00000000
Cu       1.81473742       1.81473742      -0.00000000
Ni       3.62947484       3.62947484      -0.00000000
Cu       5.44421226       5.44421226      -0.00000000
Ni       7.25894968       7.25894968      -0.00000000
Ni       9.07368710       9.07368710      -0.00000000
Ni      10.88842452      10.88842452      -0.00000000
Ni      12.70316195      12.70316195      -0.00000000
8
Lattice="1.8091173701940726e-18 1.8147374208134635 1.8147374208134635 3.629474841626927 1.8147374208134635 1.8147374208134635 14.517899366507708 14.517899366507708 -4.773048300398239e-18" Properties=species:S:1:pos:R:3 mixing_energy=0.029751007228607573 energy=-38.45656761816292 pbc="T T T"
Cu       0.00000000       0.00000000       0.00000000
Cu       1.81473742       1.81473742      -0.00000000
Ni       3.62947484       3.62947484      -0.00000000
Ni       5.44421226       5.44421226      -0.00000000
Cu       7.25894968       7.25894968      -0.00000000
Ni       9.07368710       9.07368710      -0.00000000
Ni      10.88842452      10.88842452      -0.00000000
Ni      12.70316195      12.70316195      -0.00000000
8
Lattice="1.8091173701940726e-18 1.8147374208134635 1.8147374208134635 3.629474841626927 1.8147374208134635 1.8147374208134635 14.517899366507708 14.517899366507708 -4.773048300398239e-18" Properties=species:S:1:pos:R:3 mixing_energy=0.017484895960213187 energy=-40.29949041396178 pbc="T T T"
Cu       0.00000000       0.00000000       0.00000000
Cu       1.81473742       1.81473742      -0.00000000
Ni       3.62947484       3.62947484      -0.00000000
Ni       5.44421226       5.44421226      -0.00000000
Ni       7.25894968       7.25894968      -0.00000000
Ni       9.07368710       9.07368710      -0.00000000
Ni      10.88842452      10.88842452      -0.00000000
Ni      12.70316195      12.70316195      -0.00000000
8
Lattice="1.8091173701940726e-18 1.8147374208134635 1.8147374208134635 3.629474841626927 1.8147374208134635 1.8147374208134635 14.517899366507708 14.517899366507708 -4.773048300398239e-18" Properties=species:S:1:pos:R:3 mixing_energy=0.035938311678329615 energy=-38.407069182565145 pbc="T T T"
Cu       0.00000000       0.00000000       0.00000000
Ni       1.81473742       1.81473742      -0.00000000
Cu       3.62947484       3.62947484      -0.00000000
Ni       5.44421226       5.44421226      -0.00000000
Cu       7.25894968       7.25894968      -0.00000000
Ni       9.07368710       9.07368710      -0.00000000
Ni      10.88842452      10.88842452      -0.00000000
Ni      12.70316195      12.70316195      -0.00000000
8
Lattice="1.8091173701940726e-18 1.8147374208134635 1.8147374208134635 3.629474841626927 1.8147374208134635 1.8147374208134635 14.517899366507708 14.517899366507708 -4.773048300398239e-18" Properties=species:S:1:pos:R:3 mixing_energy=0.03852822568902292 energy=-38.3863498704796 pbc="T T T"
Cu       0.00000000       0.00000000       0.00000000
Ni       1.81473742       1.81473742      -0.00000000
Cu       3.62947484       3.62947484      -0.00000000
Ni       5.44421226       5.44421226      -0.00000000
Ni       7.25894968       7.25894968      -0.00000000
Cu       9.07368710       9.07368710      -0.00000000
Ni      10.88842452      10.88842452      -0.00000000
Ni      12.70316195      12.70316195      -0.00000000
8
Lattice="1.8091173701940726e-18 1.8147374208134635 1.8147374208134635 3.629474841626927 1.8147374208134635 1.8147374208134635 14.517899366507708 14.517899366507708 -4.773048300398239e-18" Properties=species:S:1:pos:R:3 mixing_energy=0.027475540620124583 energy=-40.219565256682486 pbc="T T T"
Cu       0.00000000       0.00000000       0.00000000
Ni       1.81473742       1.81473742      -0.00000000
Cu       3.62947484       3.62947484      -0.00000000
Ni       5.44421226       5.44421226      -0.00000000
Ni       7.25894968       7.25894968      -0.00000000
Ni       9.07368710       9.07368710      -0.00000000
Ni      10.88842452      10.88842452      -0.00000000
Ni      12.70316195      12.70316195      -0.00000000
8
Lattice="1.8091173701940726e-18 1.8147374208134635 1.8147374208134635 3.629474841626927 1.8147374208134635 1.8147374208134635 14.517899366507708 14.517899366507708 -4.773048300398239e-18" Properties=species:S:1:pos:R:3 mixing_energy=0.03169488451494651 energy=-40.18581050552391 pbc="T T T"
Cu       0.00000000       0.00000000       0.00000000
Ni       1.81473742       1.81473742      -0.00000000
Ni       3.62947484       3.62947484      -0.00000000
Cu       5.44421226       5.44421226      -0.00000000
Ni       7.25894968       7.25894968      -0.00000000
Ni       9.07368710       9.07368710      -0.00000000
Ni      10.88842452      10.88842452      -0.00000000
Ni      12.70316195      12.70316195      -0.00000000
8
Lattice="1.8091173701940726e-18 1.8147374208134635 1.8147374208134635 3.629474841626927 1.8147374208134635 1.8147374208134635 14.517899366507708 14.517899366507708 -4.773048300398239e-18" Properties=species:S:1:pos:R:3 mixing_energy=0.01717690340291611 energy=-42.046748260071865 pbc="T T T"
Cu       0.00000000       0.00000000       0.00000000
Ni       1.81473742       1.81473742      -0.00000000
Ni       3.62947484       3.62947484      -0.00000000
Ni       5.44421226       5.44421226      -0.00000000
Ni       7.25894968       7.25894968      -0.00000000
Ni       9.07368710       9.07368710      -0.00000000
Ni      10.88842452      10.88842452      -0.00000000
Ni      12.70316195      12.70316195      -0.00000000
8
Lattice="1.8091173701940726e-18 1.8147374208134635 1.8147374208134635 5.444212262440391 3.629474841626927 1.8147374208134635 14.517899366507708 14.517899366507708 -4.773048300398239e-18" Properties=species:S:1:pos:R:3 mixing_energy=0.002767160355064635 energy=-31.69326277054445 pbc="T T T"
Cu       0.00000000       0.00000000       0.00000000
Cu       1.81473742       1.81473742      -0.00000000
Cu       3.62947484       3.62947484      -0.00000000
Cu       5.44421226       5.44421226      -0.00000000
Cu       7.25894968       7.25894968      -0.00000000
Cu       9.07368710       9.07368710      -0.00000000
Cu      10.88842452      10.88842452      -0.00000000
Ni      12.70316195      12.70316195      -0.00000000
8
Lattice="1.8091173701940726e-18 1.8147374208134635 1.8147374208134635 5.444212262440391 3.629474841626927 1.8147374208134635 14.517899366507708 14.517899366507708 -4.773048300398239e-18" Properties=species:S:1:pos:R:3 mixing_energy=0.008936398870028617 energy=-33.38870276807644 pbc="T T T"
Cu       0.00000000       0.00000000       0.00000000
Cu       1.81473742       1.81473742      -0.00000000
Cu       3.62947484       3.62947484      -0.00000000
Cu       5.44421226       5.44421226      -0.00000000
Cu       7.25894968       7.25894968      -0.00000000
Cu       9.07368710       9.07368710      -0.00000000
Ni      10.88842452      10.88842452      -0.00000000
Ni      12.70316195      12.70316195      -0.00000000
8
Lattice="1.8091173701940726e-18 1.8147374208134635 1.8147374208134635 5.444212262440391 3.629474841626927 1.8147374208134635 14.517899366507708 14.517899366507708 -4.773048300398239e-18" Properties=species:S:1:pos:R:3 mixing_energy=0.007993110296327322 energy=-33.39624907666605 pbc="T T T"
Cu       0.00000000       0.00000000       0.00000000
Cu       1.81473742       1.81473742      -0.00000000
Cu       3.62947484       3.62947484      -0.00000000
Cu       5.44421226       5.44421226      -0.00000000
Cu       7.25894968       7.25894968      -0.00000000
Ni       9.07368710       9.07368710      -0.00000000
Cu      10.88842452      10.88842452      -0.00000000
Ni      12.70316195      12.70316195      -0.00000000
8
Lattice="1.8091173701940726e-18 1.8147374208134635 1.8147374208134635 5.444212262440391 3.629474841626927 1.8147374208134635 14.517899366507708 14.517899366507708 -4.773048300398239e-18" Properties=species:S:1:pos:R:3 mixing_energy=0.014558655453010605 energy=-35.08851862106429 pbc="T T T"
Cu       0.00000000       0.00000000       0.00000000
Cu       1.81473742       1.81473742      -0.00000000
Cu       3.62947484       3.62947484      -0.00000000
Cu       5.44421226       5.44421226      -0.00000000
Cu       7.25894968       7.25894968      -0.00000000
Ni       9.07368710       9.07368710      -0.00000000
Ni      10.88842452      10.88842452      -0.00000000
Ni      12.70316195      12.70316195      -0.00000000
8
Lattice="1.8091173701940726e-18 1.8147374208134635 1.8147374208134635 5.444212262440391 3.629474841626927 1.8147374208134635 14.517899366507708 14.517899366507708 -4.773048300398239e-18" Properties=species:S:1:pos:R:3 mixing_energy=0.01078520370170799 energy=-33.37391232942301 pbc="T T T"
Cu       0.00000000       0.00000000       0.00000000
Cu       1.81473742       1.81473742      -0.00000000
Cu       3.62947484       3.62947484      -0.00000000
Cu       5.44421226       5.44421226      -0.00000000
Ni       7.25894968       7.25894968      -0.00000000
Cu       9.07368710       9.07368710      -0.00000000
Cu      10.88842452      10.88842452      -0.00000000
Ni      12.70316195      12.70316195      -0.00000000
8
Lattice="1.8091173701940726e-18 1.8147374208134635 1.8147374208134635 5.444212262440391 3.629474841626927 1.8147374208134635 14.517899366507708 14.517899366507708 -4.773048300398239e-18" Properties=species:S:1:pos:R:3 mixing_energy=0.016964391806844947 energy=-35.069272730233614 pbc="T T T"
Cu       0.00000000       0.00000000       0.00000000
Cu       1.81473742       1.81473742      -0.00000000
Cu       3.62947484       3.62947484      -0.00000000
Cu       5.44421226       5.44421226      -0.00000000
Ni       7.25894968       7.25894968      -0.00000000
Cu       9.07368710       9.07368710      -0.00000000
Ni      10.88842452      10.88842452      -0.00000000
Ni      12.70316195      12.70316195      -0.00000000
8
Lattice="1.8091173701940726e-18 1.8147374208134635 1.8147374208134635 5.444212262440391 3.629474841626927 1.8147374208134635 14.517899366507708 14.517899366507708 -4.773048300398239e-18" Properties=species:S:1:pos:R:3 mixing_energy=0.020217996099922697 energy=-36.788037801540696 pbc="T T T"
Cu       0.00000000       0.00000000       0.00000000
Cu       1.81473742       1.81473742      -0.00000000
Cu       3.62947484       3.62947484      -0.00000000
Cu       5.44421226       5.44421226      -0.00000000
Ni       7.25894968       7.25894968      -0.00000000
Ni       9.07368710       9.07368710      -0.00000000
Ni      10.88842452      10.88842452      -0.00000000
Ni      12.70316195      12.70316195      -0.00000000
8
Lattice="1.8091173701940726e-18 1.8147374208134635 1.8147374208134635 5.444212262440391 3.629474841626927 1.8147374208134635 14.517899366507708 14.517899366507708 -4.773048300398239e-18" Properties=species:S:1:pos:R:3 mixing_energy=0.020754494415217817 energy=-35.03895190936663 pbc="T T T"
Cu       0.00000000       0.00000000       0.00000000
Cu       1.81473742       1.81473742      -0.00000000
Cu       3.62947484       3.62947484      -0.00000000
Ni       5.44421226       5.44421226      -0.00000000
Cu       7.25894968       7.25894968      -0.00000000
Cu       9.07368710       9.07368710      -0.00000000
Ni      10.88842452      10.88842452      -0.00000000
Ni      12.70316195      12.70316195      -0.00000000
8
Lattice="1.8091173701940726e-18 1.8147374208134635 1.8147374208134635 5.444212262440391 3.629474841626927 1.8147374208134635 14.517899366507708 14.517899366507708 -4.773048300398239e-18" Properties=species:S:1:pos:R:3 mixing_energy=0.016351311239358512 energy=-35.074177374773505 pbc="T T T"
Cu       0.00000000       0.00000000       0.00000000
Cu       1.81473742       1.81473742      -0.00000000
Cu       3.62947484       3.62947484      -0.00000000
Ni       5.44421226       5.44421226      -0.00000000
Cu       7.25894968       7.25894968      -0.00000000
Ni       9.07368710       9.07368710      -0.00000000
Cu      10.88842452      10.88842452      -0.00000000
Ni      12.70316195      12.70316195      -0.00000000
8
Lattice="1.8091173701940726e-18 1.8147374208134635 1.8147374208134635 5.444212262440391 3.629474841626927 1.8147374208134635 14.517899366507708 14.517899366507708 -4.773048300398239e-18" Properties=species:S:1:pos:R:3 mixing_energy=0.02352105025771456 energy=-36.76161336827836 pbc="T T T"
Cu       0.00000000       0.00000000       0.00000000
Cu       1.81473742       1.81473742      -0.00000000
Cu       3.62947484       3.62947484      -0.00000000
Ni       5.44421226       5.44421226      -0.00000000
Cu       7.25894968       7.25894968      -0.00000000
Ni       9.07368710       9.07368710      -0.00000000
Ni      10.88842452      10.88842452      -0.00000000
Ni      12.70316195      12.70316195      -0.00000000
8
Lattice="1.8091173701940726e-18 1.8147374208134635 1.8147374208134635 5.444212262440391 3.629474841626927 1.8147374208134635 14.517899366507708 14.517899366507708 -4.773048300398239e-18" Properties=species:S:1:pos:R:3 mixing_energy=0.02712286549820897 energy=-36.732798846354406 pbc="T T T"
Cu       0.00000000       0.00000000       0.00000000
Cu       1.81473742       1.81473742      -0.00000000
Cu       3.62947484       3.62947484      -0.00000000
Ni       5.44421226       5.44421226      -0.00000000
Ni       7.25894968       7.25894968      -0.00000000
Cu       9.07368710       9.07368710      -0.00000000
Ni      10.88842452      10.88842452      -0.00000000
Ni      12.70316195      12.70316195      -0.00000000
8
Lattice="1.8091173701940726e-18 1.8147374208134635 1.8147374208134635 5.444212262440391 3.629474841626927 1.8147374208134635 14.517899366507708 14.517899366507708 -4.773048300398239e-18" Properties=species:S:1:pos:R:3 mixing_energy=0.02481679173722151 energy=-38.49604134209401 pbc="T T T"
Cu       0.00000000       0.00000000       0.00000000
Cu       1.81473742       1.81473742      -0.00000000
Cu       3.62947484       3.62947484      -0.00000000
Ni       5.44421226       5.44421226      -0.00000000
Ni       7.25894968       7.25894968      -0.00000000
Ni       9.07368710       9.07368710      -0.00000000
Ni      10.88842452      10.88842452      -0.00000000
Ni      12.70316195      12.70316195      -0.00000000
8
Lattice="1.8091173701940726e-18 1.8147374208134635 1.8147374208134635 5.444212262440391 3.629474841626927 1.8147374208134635 14.517899366507708 14.517899366507708 -4.773048300398239e-18" Properties=species:S:1:pos:R:3 mixing_energy=0.01832982783340542 energy=-35.05834924202113 pbc="T T T"
Cu       0.00000000       0.00000000       0.00000000
Cu       1.81473742       1.81473742      -0.00000000
Ni       3.62947484       3.62947484      -0.00000000
Cu       5.44421226       5.44421226      -0.00000000
Cu       7.25894968       7.25894968      -0.00000000
Ni       9.07368710       9.07368710      -0.00000000
Cu      10.88842452      10.88842452      -0.00000000
Ni      12.70316195      12.70316195      -0.00000000
8
Lattice="1.8091173701940726e-18 1.8147374208134635 1.8147374208134635 5.444212262440391 3.629474841626927 1.8147374208134635 14.517899366507708 14.517899366507708 -4.773048300398239e-18" Properties=species:S:1:pos:R:3 mixing_energy=0.026947088797836916 energy=-36.73420505995738 pbc="T T T"
Cu       0.00000000       0.00000000       0.00000000
Cu       1.81473742       1.81473742      -0.00000000
Ni       3.62947484       3.62947484      -0.00000000
Cu       5.44421226       5.44421226      -0.00000000
Cu       7.25894968       7.25894968      -0.00000000
Ni       9.07368710       9.07368710      -0.00000000
Ni      10.88842452      10.88842452      -0.00000000
Ni      12.70316195      12.70316195      -0.00000000
8
Lattice="1.8091173701940726e-18 1.8147374208134635 1.8147374208134635 5.444212262440391 3.629474841626927 1.8147374208134635 14.517899366507708 14.517899366507708 -4.773048300398239e-18" Properties=species:S:1:pos:R:3 mixing_energy=0.025465479618933085 energy=-36.74605793338861 pbc="T T T"
Cu       0.00000000       0.00000000       0.00000000
Cu       1.81473742       1.81473742      -0.00000000
Ni       3.62947484       3.62947484      -0.00000000
Cu       5.44421226       5.44421226      -0.00000000
Ni       7.25894968       7.25894968      -0.00000000
Cu       9.07368710       9.07368710      -0.00000000
Ni      10.88842452      10.88842452      -0.00000000
Ni      12.70316195      12.70316195      -0.00000000
8
Lattice="1.8091173701940726e-18 1.8147374208134635 1.8147374208134635 5.444212262440391 3.629474841626927 1.8147374208134635 14.517899366507708 14.517899366507708 -4.773048300398239e-18" Properties=species:S:1:pos:R:3 mixing_energy=0.023894923315898264 energy=-36.75862238381289 pbc="T T T"
Cu       0.00000000       0.00000000       0.00000000
Cu       1.81473742       1.81473742      -0.00000000
Ni       3.62947484       3.62947484      -0.00000000
Cu       5.44421226       5.44421226      -0.00000000
Ni       7.25894968       7.25894968      -0.00000000
Ni       9.07368710       9.07368710      -0.00000000
Cu      10.88842452      10.88842452      -0.00000000
Ni      12.70316195      12.70316195      -0.00000000
8
Lattice="1.8091173701940726e-18 1.8147374208134635 1.8147374208134635 5.444212262440391 3.629474841626927 1.8147374208134635 14.517899366507708 14.517899366507708 -4.773048300398239e-18" Properties=species:S:1:pos:R:3 mixing_energy=0.02696266024870253 energy=-38.47887439400216 pbc="T T T"
Cu       0.00000000       0.00000000       0.00000000
Cu       1.81473742       1.81473742      -0.00000000
Ni       3.62947484       3.62947484      -0.00000000
Cu       5.44421226       5.44421226      -0.00000000
Ni       7.25894968       7.25894968      -0.00000000
Ni       9.07368710       9.07368710      -0.00000000
Ni      10.88842452      10.88842452      -0.00000000
Ni      12.70316195      12.70316195      -0.00000000
8
Lattice="1.8091173701940726e-18 1.8147374208134635 1.8147374208134635 5.444212262440391 3.629474841626927 1.8147374208134635 14.517899366507708 14.517899366507708 -4.773048300398239e-18" Properties=species:S:1:pos:R:3 mixing_energy=0.03203260948995856 energy=-38.43831480007211 pbc="T T T"
Cu       0.00000000       0.00000000       0.00000000
Cu       1.81473742       1.81473742      -0.00000000
Ni       3.62947484       3.62947484      -0.00000000
Ni       5.44421226       5.44421226      -0.00000000
Cu       7.25894968       7.25894968      -0.00000000
Ni       9.07368710       9.07368710      -0.00000000
Ni      10.88842452      10.88842452      -0.00000000
Ni      12.70316195      12.70316195      -0.00000000
8
Lattice="1.8091173701940726e-18 1.8147374208134635 1.8147374208134635 5.444212262440391 3.629474841626927 1.8147374208134635 14.517899366507708 14.517899366507708 -4.773048300398239e-18" Properties=species:S:1:pos:R:3 mixing_energy=0.026130404050991096 energy=-40.230326349235554 pbc="T T T"
Cu       0.00000000       0.00000000       0.00000000
Cu       1.81473742       1.81473742      -0.00000000
Ni       3.62947484       3.62947484      -0.00000000
Ni       5.44421226       5.44421226      -0.00000000
Ni       7.25894968       7.25894968      -0.00000000
Ni       9.07368710       9.07368710      -0.00000000
Ni      10.88842452      10.88842452      -0.00000000
Ni      12.70316195      12.70316195      -0.00000000
8
Lattice="1.8091173701940726e-18 1.8147374208134635 1.8147374208134635 5.444212262440391 3.629474841626927 1.8147374208134635 14.517899366507708 14.517899366507708 -4.773048300398239e-18" Properties=species:S:1:pos:R:3 mixing_energy=0.026629337503340178 energy=-38.48154097596506 pbc="T T T"
Cu       0.00000000       0.00000000       0.00000000
Ni       1.81473742       1.81473742      -0.00000000
Cu       3.62947484       3.62947484      -0.00000000
Ni       5.44421226       5.44421226      -0.00000000
Cu       7.25894968       7.25894968      -0.00000000
Ni       9.07368710       9.07368710      -0.00000000
Ni      10.88842452      10.88842452      -0.00000000
Ni      12.70316195      12.70316195      -0.00000000
8
Lattice="1.8091173701940726e-18 1.8147374208134635 1.8147374208134635 5.444212262440391 3.629474841626927 1.8147374208134635 14.517899366507708 14.517899366507708 -4.773048300398239e-18" Properties=species:S:1:pos:R:3 mixing_energy=0.028210226785196912 energy=-38.46889386171021 pbc="T T T"
Cu       0.00000000       0.00000000       0.00000000
Ni       1.81473742       1.81473742      -0.00000000
Cu       3.62947484       3.62947484      -0.00000000
Ni       5.44421226       5.44421226      -0.00000000
Ni       7.25894968       7.25894968      -0.00000000
Cu       9.07368710       9.07368710      -0.00000000
Ni      10.88842452      10.88842452      -0.00000000
Ni      12.70316195      12.70316195      -0.00000000
8
Lattice="1.8091173701940726e-18 1.8147374208134635 1.8147374208134635 5.444212262440391 3.629474841626927 1.8147374208134635 14.517899366507708 14.517899366507708 -4.773048300398239e-18" Properties=species:S:1:pos:R:3 mixing_energy=0.023552922991689762 energy=-40.250946197709965 pbc="T T T"
Cu       0.00000000       0.00000000       0.00000000
Ni       1.81473742       1.81473742      -0.00000000
Cu       3.62947484       3.62947484      -0.00000000
Ni       5.44421226       5.44421226      -0.00000000
Ni       7.25894968       7.25894968      -0.00000000
Ni       9.07368710       9.07368710      -0.00000000
Ni      10.88842452      10.88842452      -0.00000000
Ni      12.70316195      12.70316195      -0.00000000
8
Lattice="1.8091173701940726e-18 1.8147374208134635 1.8147374208134635 5.444212262440391 3.629474841626927 1.8147374208134635 14.517899366507708 14.517899366507708 -4.773048300398239e-18" Properties=species:S:1:pos:R:3 mixing_energy=0.027431420659896233 energy=-40.21991821636431 pbc="T T T"
Cu       0.00000000       0.00000000       0.00000000
Ni       1.81473742       1.81473742      -0.00000000
Ni       3.62947484       3.62947484      -0.00000000
Cu       5.44421226       5.44421226      -0.00000000
Ni       7.25894968       7.25894968      -0.00000000
Ni       9.07368710       9.07368710      -0.00000000
Ni      10.88842452      10.88842452      -0.00000000
Ni      12.70316195      12.70316195      -0.00000000
8
Lattice="1.8091173701940726e-18 1.8147374208134635 1.8147374208134635 5.444212262440391 3.629474841626927 1.8147374208134635 14.517899366507708 14.517899366507708 -4.773048300398239e-18" Properties=species:S:1:pos:R:3 mixing_energy=0.017340419322710687 energy=-42.04544013271351 pbc="T T T"
Cu       0.00000000       0.00000000       0.00000000
Ni       1.81473742       1.81473742      -0.00000000
Ni       3.62947484       3.62947484      -0.00000000
Ni       5.44421226       5.44421226      -0.00000000
Ni       7.25894968       7.25894968      -0.00000000
Ni       9.07368710       9.07368710      -0.00000000
Ni      10.88842452      10.88842452      -0.00000000
Ni      12.70316195      12.70316195      -0.00000000
8
Lattice="1.8091173701940726e-18 1.8147374208134635 1.8147374208134635 7.258949683253854 5.444212262440391 1.8147374208134635 14.517899366507708 14.517899366507708 -4.773048300398239e-18" Properties=species:S:1:pos:R:3 mixing_energy=0.0028024576357567055 energy=-31.692980392298914 pbc="T T T"
Cu       0.00000000       0.00000000       0.00000000
Cu       1.81473742       1.81473742      -0.00000000
Cu       3.62947484       3.62947484      -0.00000000
Cu       5.44421226       5.44421226      -0.00000000
Cu       7.25894968       7.25894968      -0.00000000
Cu       9.07368710       9.07368710      -0.00000000
Cu      10.88842452      10.88842452      -0.00000000
Ni      12.70316195      12.70316195      -0.00000000
8
Lattice="1.8091173701940726e-18 1.8147374208134635 1.8147374208134635 7.258949683253854 5.444212262440391 1.8147374208134635 14.517899366507708 14.517899366507708 -4.773048300398239e-18" Properties=species:S:1:pos:R:3 mixing_energy=0.008258101988802613 energy=-33.39412914312625 pbc="T T T"
Cu       0.00000000       0.00000000       0.00000000
Cu       1.81473742       1.81473742      -0.00000000
Cu       3.62947484       3.62947484      -0.00000000
Cu       5.44421226       5.44421226      -0.00000000
Cu       7.25894968       7.25894968      -0.00000000
Cu       9.07368710       9.07368710      -0.00000000
Ni      10.88842452      10.88842452      -0.00000000
Ni      12.70316195      12.70316195      -0.00000000
8
Lattice="1.8091173701940726e-18 1.8147374208134635 1.8147374208134635 7.258949683253854 5.444212262440391 1.8147374208134635 14.517899366507708 14.517899366507708 -4.773048300398239e-18" Properties=species:S:1:pos:R:3 mixing_energy=0.011307540955547202 energy=-33.36973363139229 pbc="T T T"
Cu       0.00000000       0.00000000       0.00000000
Cu       1.81473742       1.81473742      -0.00000000
Cu       3.62947484       3.62947484      -0.00000000
Cu       5.44421226       5.44421226      -0.00000000
Cu       7.25894968       7.25894968      -0.00000000
Ni       9.07368710       9.07368710      -0.00000000
Cu      10.88842452      10.88842452      -0.00000000
Ni      12.70316195      12.70316195      -0.00000000
8
Lattice="1.8091173701940726e-18 1.8147374208134635 1.8147374208134635 7.258949683253854 5.444212262440391 1.8147374208134635 14.517899366507708 14.517899366507708 -4.773048300398239e-18" Properties=species:S:1:pos:R:3 mixing_energy=0.016797035430205387 energy=-35.07061158124673 pbc="T T T"
Cu       0.00000000       0.00000000       0.00000000
Cu       1.81473742       1.81473742      -0.00000000
Cu       3.62947484       3.62947484      -0.00000000
Cu       5.44421226       5.44421226      -0.00000000
Cu       7.25894968       7.25894968      -0.00000000
Ni       9.07368710       9.07368710      -0.00000000
Ni      10.88842452      10.88842452      -0.00000000
Ni      12.70316195      12.70316195      -0.00000000
8
Lattice="1.8091173701940726e-18 1.8147374208134635 1.8147374208134635 7.258949683253854 5.444212262440391 1.8147374208134635 14.517899366507708 14.517899366507708 -4.773048300398239e-18" Properties=species:S:1:pos:R:3 mixing_energy=0.017479645492066265 energy=-35.06515070075184 pbc="T T T"
Cu       0.00000000       0.00000000       0.00000000
Cu       1.81473742       1.81473742      -0.00000000
Cu       3.62947484       3.62947484      -0.00000000
Cu       5.44421226       5.44421226      -0.00000000
Ni       7.25894968       7.25894968      -0.00000000
Cu       9.07368710       9.07368710      -0.00000000
Ni      10.88842452      10.88842452      -0.00000000
Ni      12.70316195      12.70316195      -0.00000000
8
Lattice="1.8091173701940726e-18 1.8147374208134635 1.8147374208134635 7.258949683253854 5.444212262440391 1.8147374208134635 14.517899366507708 14.517899366507708 -4.773048300398239e-18" Properties=species:S:1:pos:R:3 mixing_energy=0.023827236621495995 energy=-36.75916387736811 pbc="T T T"
Cu       0.00000000       0.00000000       0.00000000
Cu       1.81473742       1.81473742      -0.00000000
Cu       3.62947484       3.62947484      -0.00000000
Cu       5.44421226       5.44421226      -0.00000000
Ni       7.25894968       7.25894968      -0.00000000
Ni       9.07368710       9.07368710      -0.00000000
Ni      10.88842452      10.88842452      -0.00000000
Ni      12.70316195      12.70316195      -0.00000000
8
Lattice="1.8091173701940726e-18 1.8147374208134635 1.8147374208134635 7.258949683253854 5.444212262440391 1.8147374208134635 14.517899366507708 14.517899366507708 -4.773048300398239e-18" Properties=species:S:1:pos:R:3 mixing_energy=0.015027262147873532 energy=-35.084769767505385 pbc="T T T"
Cu       0.00000000       0.00000000       0.00000000
Cu       1.81473742       1.81473742      -0.00000000
Cu       3.62947484       3.62947484      -0.00000000
Ni       5.44421226       5.44421226      -0.00000000
Cu       7.25894968       7.25894968      -0.00000000
Cu       9.07368710       9.07368710      -0.00000000
Ni      10.88842452      10.88842452      -0.00000000
Ni      12.70316195      12.70316195      -0.00000000
8
Lattice="1.8091173701940726e-18 1.8147374208134635 1.8147374208134635 7.258949683253854 5.444212262440391 1.8147374208134635 14.517899366507708 14.517899366507708 -4.773048300398239e-18" Properties=species:S:1:pos:R:3 mixing_energy=0.02378206340361233 energy=-35.014731357459475 pbc="T T T"
Cu       0.00000000       0.00000000       0.00000000
Cu       1.81473742       1.81473742      -0.00000000
Cu       3.62947484       3.62947484      -0.00000000
Ni       5.44421226       5.44421226      -0.00000000
Cu       7.25894968       7.25894968      -0.00000000
Ni       9.07368710       9.07368710      -0.00000000
Cu      10.88842452      10.88842452      -0.00000000
Ni      12.70316195      12.70316195      -0.00000000
8
Lattice="1.8091173701940726e-18 1.8147374208134635 1.8147374208134635 7.258949683253854 5.444212262440391 1.8147374208134635 14.517899366507708 14.517899366507708 -4.773048300398239e-18" Properties=species:S:1:pos:R:3 mixing_energy=0.02601207012591411 energy=-36.741685209332765 pbc="T T T"
Cu       0.00000000       0.00000000       0.00000000
Cu       1.81473742       1.81473742      -0.00000000
Cu       3.62947484       3.62947484      -0.00000000
Ni       5.44421226       5.44421226      -0.00000000
Cu       7.25894968       7.25894968      -0.00000000
Ni       9.07368710       9.07368710      -0.00000000
Ni      10.88842452      10.88842452      -0.00000000
Ni      12.70316195      12.70316195      -0.00000000
8
Lattice="1.8091173701940726e-18 1.8147374208134635 1.8147374208134635 7.258949683253854 5.444212262440391 1.8147374208134635 14.517899366507708 14.517899366507708 -4.773048300398239e-18" Properties=species:S:1:pos:R:3 mixing_energy=0.02212832193823422 energy=-36.772755194834204 pbc="T T T"
Cu       0.00000000       0.00000000       0.00000000
Cu       1.81473742       1.81473742      -0.00000000
Cu       3.62947484       3.62947484      -0.00000000
Ni       5.44421226       5.44421226      -0.00000000
Ni       7.25894968       7.25894968      -0.00000000
Cu       9.07368710       9.07368710      -0.00000000
Ni      10.88842452      10.88842452      -0.00000000
Ni      12.70316195      12.70316195      -0.00000000
8
Lattice="1.8091173701940726e-18 1.8147374208134635 1.8147374208134635 7.258949683253854 5.444212262440391 1.8147374208134635 14.517899366507708 14.517899366507708 -4.773048300398239e-18" Properties=species:S:1:pos:R:3 mixing_energy=0.028134615383133887 energy=-38.46949875292671 pbc="T T T"
Cu       0.00000000       0.00000000       0.00000000
Cu       1.81473742       1.81473742      -0.00000000
Cu       3.62947484       3.62947484      -0.00000000
Ni       5.44421226       5.44421226      -0.00000000
Ni       7.25894968       7.25894968      -0.00000000
Ni       9.07368710       9.07368710      -0.00000000
Ni      10.88842452      10.88842452      -0.00000000
Ni      12.70316195      12.70316195      -0.00000000
8
Lattice="1.8091173701940726e-18 1.8147374208134635 1.8147374208134635 7.258949683253854 5.444212262440391 1.8147374208134635 14.517899366507708 14.517899366507708 -4.773048300398239e-18" Properties=species:S:1:pos:R:3 mixing_energy=0.020076394977246448 energy=-36.789170610522106 pbc="T T T"
Cu       0.00000000       0.00000000       0.00000000
Cu       1.81473742       1.81473742      -0.00000000
Ni       3.62947484       3.62947484      -0.00000000
Cu       5.44421226       5.44421226      -0.00000000
Cu       7.25894968       7.25894968      -0.00000000
Ni       9.07368710       9.07368710      -0.00000000
Ni      10.88842452      10.88842452      -0.00000000
Ni      12.70316195      12.70316195      -0.00000000
8
Lattice="1.8091173701940726e-18 1.8147374208134635 1.8147374208134635 7.258949683253854 5.444212262440391 1.8147374208134635 14.517899366507708 14.517899366507708 -4.773048300398239e-18" Properties=species:S:1:pos:R:3 mixing_energy=0.026915533895024435 energy=-38.47925140483159 pbc="T T T"
Cu       0.00000000       0.00000000       0.00000000
Cu       1.81473742       1.81473742      -0.00000000
Ni       3.62947484       3.62947484      -0.00000000
Cu       5.44421226       5.44421226      -0.00000000
Ni       7.25894968       7.25894968      -0.00000000
Ni       9.07368710       9.07368710      -0.00000000
Ni      10.88842452      10.88842452      -0.00000000
Ni      12.70316195      12.70316195      -0.00000000
8
Lattice="1.8091173701940726e-18 1.8147374208134635 1.8147374208134635 7.258949683253854 5.444212262440391 1.8147374208134635 14.517899366507708 14.517899366507708 -4.773048300398239e-18" Properties=species:S:1:pos:R:3 mixing_energy=0.022774950966450103 energy=-38.51237606826018 pbc="T T T"
Cu       0.00000000       0.00000000       0.00000000
Cu       1.81473742       1.81473742      -0.00000000
Ni       3.62947484       3.62947484      -0.00000000
Ni       5.44421226       5.44421226      -0.00000000
Cu       7.25894968       7.25894968      -0.00000000
Ni       9.07368710       9.07368710      -0.00000000
Ni      10.88842452      10.88842452      -0.00000000
Ni      12.70316195      12.70316195      -0.00000000
8
Lattice="1.8091173701940726e-18 1.8147374208134635 1.8147374208134635 7.258949683253854 5.444212262440391 1.8147374208134635 14.517899366507708 14.517899366507708 -4.773048300398239e-18" Properties=species:S:1:pos:R:3 mixing_energy=0.023004346747268478 energy=-40.255334807665335 pbc="T T T"
Cu       0.00000000       0.00000000       0.00000000
Cu       1.81473742       1.81473742      -0.00000000
Ni       3.62947484       3.62947484      -0.00000000
Ni       5.44421226       5.44421226      -0.00000000
Ni       7.25894968       7.25894968      -0.00000000
Ni       9.07368710       9.07368710      -0.00000000
Ni      10.88842452      10.88842452      -0.00000000
Ni      12.70316195      12.70316195      -0.00000000
8
Lattice="1.8091173701940726e-18 1.8147374208134635 1.8147374208134635 7.258949683253854 5.444212262440391 1.8147374208134635 14.517899366507708 14.517899366507708 -4.773048300398239e-18" Properties=species:S:1:pos:R:3 mixing_energy=0.03541770766744756 energy=-38.4112340146522 pbc="T T T"
Cu       0.00000000       0.00000000       0.00000000
Ni       1.81473742       1.81473742      -0.00000000
Cu       3.62947484       3.62947484      -0.00000000
Ni       5.44421226       5.44421226      -0.00000000
Cu       7.25894968       7.25894968      -0.00000000
Ni       9.07368710       9.07368710      -0.00000000
Ni      10.88842452      10.88842452      -0.00000000
Ni      12.70316195      12.70316195      -0.00000000
8
Lattice="1.8091173701940726e-18 1.8147374208134635 1.8147374208134635 7.258949683253854 5.444212262440391 1.8147374208134635 14.517899366507708 14.517899366507708 -4.773048300398239e-18" Properties=species:S:1:pos:R:3 mixing_energy=0.02972979503697548 energy=-40.20153122134768 pbc="T T T"
Cu       0.00000000       0.00000000       0.00000000
Ni       1.81473742       1.81473742      -0.00000000
Cu       3.62947484       3.62947484      -0.00000000
Ni       5.44421226       5.44421226      -0.00000000
Ni       7.25894968       7.25894968      -0.00000000
Ni       9.07368710       9.07368710      -0.00000000
Ni      10.88842452      10.88842452      -0.00000000
Ni      12.70316195      12.70316195      -0.00000000
8
Lattice="1.8091173701940726e-18 1.8147374208134635 1.8147374208134635 7.258949683253854 5.444212262440391 1.8147374208134635 14.517899366507708 14.517899366507708 -4.773048300398239e-18" Properties=species:S:1:pos:R:3 mixing_energy=0.016400713753563778 energy=-42.052957777266684 pbc="T T T"
Cu       0.00000000       0.00000000       0.00000000
Ni       1.81473742       1.81473742      -0.00000000
Ni       3.62947484       3.62947484      -0.00000000
Ni       5.44421226       5.44421226      -0.00000000
Ni       7.25894968       7.25894968      -0.00000000
Ni       9.07368710       9.07368710      -0.00000000
Ni      10.88842452      10.88842452      -0.00000000
Ni      12.70316195      12.70316195      -0.00000000
8
Lattice="1.8091173701940726e-18 1.8147374208134635 1.8147374208134635 9.073687104067318 7.258949683253854 1.8147374208134635 14.517899366507708 14.517899366507708 -4.773048300398239e-18" Properties=species:S:1:pos:R:3 mixing_energy=0.004073409369062975 energy=-31.682812778432464 pbc="T T T"
Cu       0.00000000       0.00000000       0.00000000
Cu       1.81473742       1.81473742      -0.00000000
Cu       3.62947484       3.62947484      -0.00000000
Cu       5.44421226       5.44421226      -0.00000000
Cu       7.25894968       7.25894968      -0.00000000
Cu       9.07368710       9.07368710      -0.00000000
Cu      10.88842452      10.88842452      -0.00000000
Ni      12.70316195      12.70316195      -0.00000000
8
Lattice="1.8091173701940726e-18 1.8147374208134635 1.8147374208134635 9.073687104067318 7.258949683253854 1.8147374208134635 14.517899366507708 14.517899366507708 -4.773048300398239e-18" Properties=species:S:1:pos:R:3 mixing_energy=0.010130257655196706 energy=-33.3791518977951 pbc="T T T"
Cu       0.00000000       0.00000000       0.00000000
Cu       1.81473742       1.81473742      -0.00000000
Cu       3.62947484       3.62947484      -0.00000000
Cu       5.44421226       5.44421226      -0.00000000
Cu       7.25894968       7.25894968      -0.00000000
Cu       9.07368710       9.07368710      -0.00000000
Ni      10.88842452      10.88842452      -0.00000000
Ni      12.70316195      12.70316195      -0.00000000
8
Lattice="1.8091173701940726e-18 1.8147374208134635 1.8147374208134635 9.073687104067318 7.258949683253854 1.8147374208134635 14.517899366507708 14.517899366507708 -4.773048300398239e-18" Properties=species:S:1:pos:R:3 mixing_energy=0.01078007495254485 energy=-33.37395335941631 pbc="T T T"
Cu       0.00000000       0.00000000       0.00000000
Cu       1.81473742       1.81473742      -0.00000000
Cu       3.62947484       3.62947484      -0.00000000
Cu       5.44421226       5.44421226      -0.00000000
Cu       7.25894968       7.25894968      -0.00000000
Ni       9.07368710       9.07368710      -0.00000000
Cu      10.88842452      10.88842452      -0.00000000
Ni      12.70316195      12.70316195      -0.00000000
8
Lattice="1.8091173701940726e-18 1.8147374208134635 1.8147374208134635 9.073687104067318 7.258949683253854 1.8147374208134635 14.517899366507708 14.517899366507708 -4.773048300398239e-18" Properties=species:S:1:pos:R:3 mixing_energy=0.017171945246325482 energy=-35.06761230271777 pbc="T T T"
Cu       0.00000000       0.00000000       0.00000000
Cu       1.81473742       1.81473742      -0.00000000
Cu       3.62947484       3.62947484      -0.00000000
Cu       5.44421226       5.44421226      -0.00000000
Cu       7.25894968       7.25894968      -0.00000000
Ni       9.07368710       9.07368710      -0.00000000
Ni      10.88842452      10.88842452      -0.00000000
Ni      12.70316195      12.70316195      -0.00000000
8
Lattice="1.8091173701940726e-18 1.8147374208134635 1.8147374208134635 9.073687104067318 7.258949683253854 1.8147374208134635 14.517899366507708 14.517899366507708 -4.773048300398239e-18" Properties=species:S:1:pos:R:3 mixing_energy=0.014407100790218896 energy=-33.34493715271492 pbc="T T T"
Cu       0.00000000       0.00000000       0.00000000
Cu       1.81473742       1.81473742      -0.00000000
Cu       3.62947484       3.62947484      -0.00000000
Cu       5.44421226       5.44421226      -0.00000000
Ni       7.25894968       7.25894968      -0.00000000
Cu       9.07368710       9.07368710      -0.00000000
Cu      10.88842452      10.88842452      -0.00000000
Ni      12.70316195      12.70316195      -0.00000000
8
Lattice="1.8091173701940726e-18 1.8147374208134635 1.8147374208134635 9.073687104067318 7.258949683253854 1.8147374208134635 14.517899366507708 14.517899366507708 -4.773048300398239e-18" Properties=species:S:1:pos:R:3 mixing_energy=0.021023513532244298 energy=-35.03679975643042 pbc="T T T"
Cu       0.00000000       0.00000000       0.00000000
Cu       1.81473742       1.81473742      -0.00000000
Cu       3.62947484       3.62947484      -0.00000000
Cu       5.44421226       5.44421226      -0.00000000
Ni       7.25894968       7.25894968      -0.00000000
Cu       9.07368710       9.07368710      -0.00000000
Ni      10.88842452      10.88842452      -0.00000000
Ni      12.70316195      12.70316195      -0.00000000
8
Lattice="1.8091173701940726e-18 1.8147374208134635 1.8147374208134635 9.073687104067318 7.258949683253854 1.8147374208134635 14.517899366507708 14.517899366507708 -4.773048300398239e-18" Properties=species:S:1:pos:R:3 mixing_energy=0.026370788871965534 energy=-36.73881545936435 pbc="T T T"
Cu       0.00000000       0.00000000       0.00000000
Cu       1.81473742       1.81473742      -0.00000000
Cu       3.62947484       3.62947484      -0.00000000
Cu       5.44421226       5.44421226      -0.00000000
Ni       7.25894968       7.25894968      -0.00000000
Ni       9.07368710       9.07368710      -0.00000000
Ni      10.88842452      10.88842452      -0.00000000
Ni      12.70316195      12.70316195      -0.00000000
8
Lattice="1.8091173701940726e-18 1.8147374208134635 1.8147374208134635 9.073687104067318 7.258949683253854 1.8147374208134635 14.517899366507708 14.517899366507708 -4.773048300398239e-18" Properties=species:S:1:pos:R:3 mixing_energy=0.015857792410230775 energy=-35.07812552540653 pbc="T T T"
Cu       0.00000000       0.00000000       0.00000000
Cu       1.81473742       1.81473742      -0.00000000
Cu       3.62947484       3.62947484      -0.00000000
Ni       5.44421226       5.44421226      -0.00000000
Cu       7.25894968       7.25894968      -0.00000000
Cu       9.07368710       9.07368710      -0.00000000
Ni      10.88842452      10.88842452      -0.00000000
Ni      12.70316195      12.70316195      -0.00000000
8
Lattice="1.8091173701940726e-18 1.8147374208134635 1.8147374208134635 9.073687104067318 7.258949683253854 1.8147374208134635 14.517899366507708 14.517899366507708 -4.773048300398239e-18" Properties=species:S:1:pos:R:3 mixing_energy=0.015890450834034286 energy=-35.0778642580161 pbc="T T T"
Cu       0.00000000       0.00000000       0.00000000
Cu       1.81473742       1.81473742      -0.00000000
Cu       3.62947484       3.62947484      -0.00000000
Ni       5.44421226       5.44421226      -0.00000000
Cu       7.25894968       7.25894968      -0.00000000
Ni       9.07368710       9.07368710      -0.00000000
Cu      10.88842452      10.88842452      -0.00000000
Ni      12.70316195      12.70316195      -0.00000000
8
Lattice="1.8091173701940726e-18 1.8147374208134635 1.8147374208134635 9.073687104067318 7.258949683253854 1.8147374208134635 14.517899366507708 14.517899366507708 -4.773048300398239e-18" Properties=species:S:1:pos:R:3 mixing_energy=0.022737088685329088 energy=-36.767885060857445 pbc="T T T"
Cu       0.00000000       0.00000000       0.00000000
Cu       1.81473742       1.81473742      -0.00000000
Cu       3.62947484       3.62947484      -0.00000000
Ni       5.44421226       5.44421226      -0.00000000
Cu       7.25894968       7.25894968      -0.00000000
Ni       9.07368710       9.07368710      -0.00000000
Ni      10.88842452      10.88842452      -0.00000000
Ni      12.70316195      12.70316195      -0.00000000
8
Lattice="1.8091173701940726e-18 1.8147374208134635 1.8147374208134635 9.073687104067318 7.258949683253854 1.8147374208134635 14.517899366507708 14.517899366507708 -4.773048300398239e-18" Properties=species:S:1:pos:R:3 mixing_energy=0.02347200515052217 energy=-36.7620057291359 pbc="T T T"
Cu       0.00000000       0.00000000       0.00000000
Cu       1.81473742       1.81473742      -0.00000000
Cu       3.62947484       3.62947484      -0.00000000
Ni       5.44421226       5.44421226      -0.00000000
Ni       7.25894968       7.25894968      -0.00000000
Cu       9.07368710       9.07368710      -0.00000000
Ni      10.88842452      10.88842452      -0.00000000
Ni      12.70316195      12.70316195      -0.00000000
8
Lattice="1.8091173701940726e-18 1.8147374208134635 1.8147374208134635 9.073687104067318 7.258949683253854 1.8147374208134635 14.517899366507708 14.517899366507708 -4.773048300398239e-18" Properties=species:S:1:pos:R:3 mixing_energy=0.02710973788620885 energy=-38.47769777290211 pbc="T T T"
Cu       0.00000000       0.00000000       0.00000000
Cu       1.81473742       1.81473742      -0.00000000
Cu       3.62947484       3.62947484      -0.00000000
Ni       5.44421226       5.44421226      -0.00000000
Ni       7.25894968       7.25894968      -0.00000000
Ni       9.07368710       9.07368710      -0.00000000
Ni      10.88842452      10.88842452      -0.00000000
Ni      12.70316195      12.70316195      -0.00000000
8
Lattice="1.8091173701940726e-18 1.8147374208134635 1.8147374208134635 9.073687104067318 7.258949683253854 1.8147374208134635 14.517899366507708 14.517899366507708 -4.773048300398239e-18" Properties=species:S:1:pos:R:3 mixing_energy=0.025493773854642132 energy=-35.001037673851236 pbc="T T T"
Cu       0.00000000       0.00000000       0.00000000
Cu       1.81473742       1.81473742      -0.00000000
Ni       3.62947484       3.62947484      -0.00000000
Cu       5.44421226       5.44421226      -0.00000000
Cu       7.25894968       7.25894968      -0.00000000
Ni       9.07368710       9.07368710      -0.00000000
Cu      10.88842452      10.88842452      -0.00000000
Ni      12.70316195      12.70316195      -0.00000000
8
Lattice="1.8091173701940726e-18 1.8147374208134635 1.8147374208134635 9.073687104067318 7.258949683253854 1.8147374208134635 14.517899366507708 14.517899366507708 -4.773048300398239e-18" Properties=species:S:1:pos:R:3 mixing_energy=0.023297850180572066 energy=-36.7633989688955 pbc="T T T"
Cu       0.00000000       0.00000000       0.00000000
Cu       1.81473742       1.81473742      -0.00000000
Ni       3.62947484       3.62947484      -0.00000000
Cu       5.44421226       5.44421226      -0.00000000
Cu       7.25894968       7.25894968      -0.00000000
Ni       9.07368710       9.07368710      -0.00000000
Ni      10.88842452      10.88842452      -0.00000000
Ni      12.70316195      12.70316195      -0.00000000
8
Lattice="1.8091173701940726e-18 1.8147374208134635 1.8147374208134635 9.073687104067318 7.258949683253854 1.8147374208134635 14.517899366507708 14.517899366507708 -4.773048300398239e-18" Properties=species:S:1:pos:R:3 mixing_energy=0.026740355398625848 energy=-36.73585892715107 pbc="T T T"
Cu       0.00000000       0.00000000       0.00000000
Cu       1.81473742       1.81473742      -0.00000000
Ni       3.62947484       3.62947484      -0.00000000
Cu       5.44421226       5.44421226      -0.00000000
Ni       7.25894968       7.25894968      -0.00000000
Cu       9.07368710       9.07368710      -0.00000000
Ni      10.88842452      10.88842452      -0.00000000
Ni      12.70316195      12.70316195      -0.00000000
8
Lattice="1.8091173701940726e-18 1.8147374208134635 1.8147374208134635 9.073687104067318 7.258949683253854 1.8147374208134635 14.517899366507708 14.517899366507708 -4.773048300398239e-18" Properties=species:S:1:pos:R:3 mixing_energy=0.03453374310856061 energy=-36.67351182547159 pbc="T T T"
Cu       0.00000000       0.00000000       0.00000000
Cu       1.81473742       1.81473742      -0.00000000
Ni       3.62947484       3.62947484      -0.00000000
Cu       5.44421226       5.44421226      -0.00000000
Ni       7.25894968       7.25894968      -0.00000000
Ni       9.07368710       9.07368710      -0.00000000
Cu      10.88842452      10.88842452      -0.00000000
Ni      12.70316195      12.70316195      -0.00000000
8
Lattice="1.8091173701940726e-18 1.8147374208134635 1.8147374208134635 9.073687104067318 7.258949683253854 1.8147374208134635 14.517899366507708 14.517899366507708 -4.773048300398239e-18" Properties=species:S:1:pos:R:3 mixing_energy=0.030730103623900273 energy=-38.44873484700058 pbc="T T T"
Cu       0.00000000       0.00000000       0.00000000
Cu       1.81473742       1.81473742      -0.00000000
Ni       3.62947484       3.62947484      -0.00000000
Cu       5.44421226       5.44421226      -0.00000000
Ni       7.25894968       7.25894968      -0.00000000
Ni       9.07368710       9.07368710      -0.00000000
Ni      10.88842452      10.88842452      -0.00000000
Ni      12.70316195      12.70316195      -0.00000000
8
Lattice="1.8091173701940726e-18 1.8147374208134635 1.8147374208134635 9.073687104067318 7.258949683253854 1.8147374208134635 14.517899366507708 14.517899366507708 -4.773048300398239e-18" Properties=species:S:1:pos:R:3 mixing_energy=0.021821060716043394 energy=-38.520007190263435 pbc="T T T"
Cu       0.00000000       0.00000000       0.00000000
Cu       1.81473742       1.81473742      -0.00000000
Ni       3.62947484       3.62947484      -0.00000000
Ni       5.44421226       5.44421226      -0.00000000
Cu       7.25894968       7.25894968      -0.00000000
Ni       9.07368710       9.07368710      -0.00000000
Ni      10.88842452      10.88842452      -0.00000000
Ni      12.70316195      12.70316195      -0.00000000
8
Lattice="1.8091173701940726e-18 1.8147374208134635 1.8147374208134635 9.073687104067318 7.258949683253854 1.8147374208134635 14.517899366507708 14.517899366507708 -4.773048300398239e-18" Properties=species:S:1:pos:R:3 mixing_energy=0.02327667423285451 energy=-40.25315618778065 pbc="T T T"
Cu       0.00000000       0.00000000       0.00000000
Cu       1.81473742       1.81473742      -0.00000000
Ni       3.62947484       3.62947484      -0.00000000
Ni       5.44421226       5.44421226      -0.00000000
Ni       7.25894968       7.25894968      -0.00000000
Ni       9.07368710       9.07368710      -0.00000000
Ni      10.88842452      10.88842452      -0.00000000
Ni      12.70316195      12.70316195      -0.00000000
8
Lattice="1.8091173701940726e-18 1.8147374208134635 1.8147374208134635 9.073687104067318 7.258949683253854 1.8147374208134635 14.517899366507708 14.517899366507708 -4.773048300398239e-18" Properties=species:S:1:pos:R:3 mixing_energy=0.027172439167184148 energy=-38.47719616265431 pbc="T T T"
Cu       0.00000000       0.00000000       0.00000000
Ni       1.81473742       1.81473742      -0.00000000
Cu       3.62947484       3.62947484      -0.00000000
Ni       5.44421226       5.44421226      -0.00000000
Cu       7.25894968       7.25894968      -0.00000000
Ni       9.07368710       9.07368710      -0.00000000
Ni      10.88842452      10.88842452      -0.00000000
Ni      12.70316195      12.70316195      -0.00000000
8
Lattice="1.8091173701940726e-18 1.8147374208134635 1.8147374208134635 9.073687104067318 7.258949683253854 1.8147374208134635 14.517899366507708 14.517899366507708 -4.773048300398239e-18" Properties=species:S:1:pos:R:3 mixing_energy=0.035066689013980135 energy=-38.41404216387994 pbc="T T T"
Cu       0.00000000       0.00000000       0.00000000
Ni       1.81473742       1.81473742      -0.00000000
Cu       3.62947484       3.62947484      -0.00000000
Ni       5.44421226       5.44421226      -0.00000000
Ni       7.25894968       7.25894968      -0.00000000
Cu       9.07368710       9.07368710      -0.00000000
Ni      10.88842452      10.88842452      -0.00000000
Ni      12.70316195      12.70316195      -0.00000000
8
Lattice="1.8091173701940726e-18 1.8147374208134635 1.8147374208134635 9.073687104067318 7.258949683253854 1.8147374208134635 14.517899366507708 14.517899366507708 -4.773048300398239e-18" Properties=species:S:1:pos:R:3 mixing_energy=0.028774751743550375 energy=-40.20917156769508 pbc="T T T"
Cu       0.00000000       0.00000000       0.00000000
Ni       1.81473742       1.81473742      -0.00000000
Cu       3.62947484       3.62947484      -0.00000000
Ni       5.44421226       5.44421226      -0.00000000
Ni       7.25894968       7.25894968      -0.00000000
Ni       9.07368710       9.07368710      -0.00000000
Ni      10.88842452      10.88842452      -0.00000000
Ni      12.70316195      12.70316195      -0.00000000
8
Lattice="1.8091173701940726e-18 1.8147374208134635 1.8147374208134635 9.073687104067318 7.258949683253854 1.8147374208134635 14.517899366507708 14.517899366507708 -4.773048300398239e-18" Properties=species:S:1:pos:R:3 mixing_energy=0.027287829877680636 energy=-40.22106694262204 pbc="T T T"
Cu       0.00000000       0.00000000       0.00000000
Ni       1.81473742       1.81473742      -0.00000000
Ni       3.62947484       3.62947484      -0.00000000
Cu       5.44421226       5.44421226      -0.00000000
Ni       7.25894968       7.25894968      -0.00000000
Ni       9.07368710       9.07368710      -0.00000000
Ni      10.88842452      10.88842452      -0.00000000
Ni      12.70316195      12.70316195      -0.00000000
8
Lattice="1.8091173701940726e-18 1.8147374208134635 1.8147374208134635 9.073687104067318 7.258949683253854 1.8147374208134635 14.517899366507708 14.517899366507708 -4.773048300398239e-18" Properties=species:S:1:pos:R:3 mixing_energy=0.016415871389110492 energy=-42.0528365161823 pbc="T T T"
Cu       0.00000000       0.00000000       0.00000000
Ni       1.81473742       1.81473742      -0.00000000
Ni       3.62947484       3.62947484      -0.00000000
Ni       5.44421226       5.44421226      -0.00000000
Ni       7.25894968       7.25894968      -0.00000000
Ni       9.07368710       9.07368710      -0.00000000
Ni      10.88842452      10.88842452      -0.00000000
Ni      12.70316195      12.70316195      -0.00000000
8
Lattice="1.8091173701940726e-18 1.8147374208134635 1.8147374208134635 10.888424524880781 9.073687104067318 1.8147374208134635 14.517899366507708 14.517899366507708 -4.773048300398239e-18" Properties=species:S:1:pos:R:3 mixing_energy=0.0028523312521294697 energy=-31.69258140336793 pbc="T T T"
Cu       0.00000000       0.00000000       0.00000000
Cu       1.81473742       1.81473742       0.00000000
Cu       3.62947484       3.62947484       0.00000000
Cu       5.44421226       5.44421226       0.00000000
Cu       7.25894968       7.25894968       0.00000000
Cu       9.07368710       9.07368710       0.00000000
Cu      10.88842452      10.88842452       0.00000000
Ni      12.70316195      12.70316195       0.00000000
8
Lattice="1.8091173701940726e-18 1.8147374208134635 1.8147374208134635 10.888424524880781 9.073687104067318 1.8147374208134635 14.517899366507708 14.517899366507708 -4.773048300398239e-18" Properties=species:S:1:pos:R:3 mixing_energy=0.008053769244523279 energy=-33.395763805080485 pbc="T T T"
Cu       0.00000000       0.00000000       0.00000000
Cu       1.81473742       1.81473742       0.00000000
Cu       3.62947484       3.62947484       0.00000000
Cu       5.44421226       5.44421226       0.00000000
Cu       7.25894968       7.25894968       0.00000000
Cu       9.07368710       9.07368710       0.00000000
Ni      10.88842452      10.88842452       0.00000000
Ni      12.70316195      12.70316195       0.00000000
8
Lattice="1.8091173701940726e-18 1.8147374208134635 1.8147374208134635 10.888424524880781 9.073687104067318 1.8147374208134635 14.517899366507708 14.517899366507708 -4.773048300398239e-18" Properties=species:S:1:pos:R:3 mixing_energy=0.011817177100031051 energy=-33.36565654223642 pbc="T T T"
Cu       0.00000000       0.00000000       0.00000000
Cu       1.81473742       1.81473742       0.00000000
Cu       3.62947484       3.62947484       0.00000000
Cu       5.44421226       5.44421226       0.00000000
Cu       7.25894968       7.25894968       0.00000000
Ni       9.07368710       9.07368710       0.00000000
Cu      10.88842452      10.88842452       0.00000000
Ni      12.70316195      12.70316195       0.00000000
8
Lattice="1.8091173701940726e-18 1.8147374208134635 1.8147374208134635 10.888424524880781 9.073687104067318 1.8147374208134635 14.517899366507708 14.517899366507708 -4.773048300398239e-18" Properties=species:S:1:pos:R:3 mixing_energy=0.016109657560944957 energy=-35.076110604200814 pbc="T T T"
Cu       0.00000000       0.00000000       0.00000000
Cu       1.81473742       1.81473742       0.00000000
Cu       3.62947484       3.62947484       0.00000000
Cu       5.44421226       5.44421226       0.00000000
Cu       7.25894968       7.25894968       0.00000000
Ni       9.07368710       9.07368710       0.00000000
Ni      10.88842452      10.88842452       0.00000000
Ni      12.70316195      12.70316195       0.00000000
8
Lattice="1.8091173701940726e-18 1.8147374208134635 1.8147374208134635 10.888424524880781 9.073687104067318 1.8147374208134635 14.517899366507708 14.517899366507708 -4.773048300398239e-18" Properties=species:S:1:pos:R:3 mixing_energy=0.016702659015658927 energy=-35.0713665925631 pbc="T T T"
Cu       0.00000000       0.00000000       0.00000000
Cu       1.81473742       1.81473742       0.00000000
Cu       3.62947484       3.62947484       0.00000000
Cu       5.44421226       5.44421226       0.00000000
Ni       7.25894968       7.25894968       0.00000000
Cu       9.07368710       9.07368710       0.00000000
Ni      10.88842452      10.88842452       0.00000000
Ni      12.70316195      12.70316195       0.00000000
8
Lattice="1.8091173701940726e-18 1.8147374208134635 1.8147374208134635 10.888424524880781 9.073687104067318 1.8147374208134635 14.517899366507708 14.517899366507708 -4.773048300398239e-18" Properties=species:S:1:pos:R:3 mixing_energy=0.020782689628048967 energy=-36.783520253315686 pbc="T T T"
Cu       0.00000000       0.00000000       0.00000000
Cu       1.81473742       1.81473742       0.00000000
Cu       3.62947484       3.62947484       0.00000000
Cu       5.44421226       5.44421226       0.00000000
Ni       7.25894968       7.25894968       0.00000000
Ni       9.07368710       9.07368710       0.00000000
Ni      10.88842452      10.88842452       0.00000000
Ni      12.70316195      12.70316195       0.00000000
8
Lattice="1.8091173701940726e-18 1.8147374208134635 1.8147374208134635 10.888424524880781 9.073687104067318 1.8147374208134635 14.517899366507708 14.517899366507708 -4.773048300398239e-18" Properties=species:S:1:pos:R:3 mixing_energy=0.017967711916481388 energy=-35.06124616935652 pbc="T T T"
Cu       0.00000000       0.00000000       0.00000000
Cu       1.81473742       1.81473742       0.00000000
Cu       3.62947484       3.62947484       0.00000000
Ni       5.44421226       5.44421226       0.00000000
Cu       7.25894968       7.25894968       0.00000000
Cu       9.07368710       9.07368710       0.00000000
Ni      10.88842452      10.88842452       0.00000000
Ni      12.70316195      12.70316195       0.00000000
8
Lattice="1.8091173701940726e-18 1.8147374208134635 1.8147374208134635 10.888424524880781 9.073687104067318 1.8147374208134635 14.517899366507708 14.517899366507708 -4.773048300398239e-18" Properties=species:S:1:pos:R:3 mixing_energy=0.024916691588740658 energy=-35.00565433197845 pbc="T T T"
Cu       0.00000000       0.00000000       0.00000000
Cu       1.81473742       1.81473742       0.00000000
Cu       3.62947484       3.62947484       0.00000000
Ni       5.44421226       5.44421226       0.00000000
Cu       7.25894968       7.25894968       0.00000000
Ni       9.07368710       9.07368710       0.00000000
Cu      10.88842452      10.88842452       0.00000000
Ni      12.70316195      12.70316195       0.00000000
8
Lattice="1.8091173701940726e-18 1.8147374208134635 1.8147374208134635 10.888424524880781 9.073687104067318 1.8147374208134635 14.517899366507708 14.517899366507708 -4.773048300398239e-18" Properties=species:S:1:pos:R:3 mixing_energy=0.026916692328489145 energy=-36.734448231712165 pbc="T T T"
Cu       0.00000000       0.00000000       0.00000000
Cu       1.81473742       1.81473742       0.00000000
Cu       3.62947484       3.62947484       0.00000000
Ni       5.44421226       5.44421226       0.00000000
Cu       7.25894968       7.25894968       0.00000000
Ni       9.07368710       9.07368710       0.00000000
Ni      10.88842452      10.88842452       0.00000000
Ni      12.70316195      12.70316195       0.00000000
8
Lattice="1.8091173701940726e-18 1.8147374208134635 1.8147374208134635 10.888424524880781 9.073687104067318 1.8147374208134635 14.517899366507708 14.517899366507708 -4.773048300398239e-18" Properties=species:S:1:pos:R:3 mixing_energy=0.024829311661601405 energy=-36.75114727704727 pbc="T T T"
Cu       0.00000000       0.00000000       0.00000000
Cu       1.81473742       1.81473742       0.00000000
Cu       3.62947484       3.62947484       0.00000000
Ni       5.44421226       5.44421226       0.00000000
Ni       7.25894968       7.25894968       0.00000000
Cu       9.07368710       9.07368710       0.00000000
Ni      10.88842452      10.88842452       0.00000000
Ni      12.70316195      12.70316195       0.00000000
8
Lattice="1.8091173701940726e-18 1.8147374208134635 1.8147374208134635 10.888424524880781 9.073687104067318 1.8147374208134635 14.517899366507708 14.517899366507708 -4.773048300398239e-18" Properties=species:S:1:pos:R:3 mixing_energy=0.02649398931270186 energy=-38.48262376149017 pbc="T T T"
Cu       0.00000000       0.00000000       0.00000000
Cu       1.81473742       1.81473742       0.00000000
Cu       3.62947484       3.62947484       0.00000000
Ni       5.44421226       5.44421226       0.00000000
Ni       7.25894968       7.25894968       0.00000000
Ni       9.07368710       9.07368710       0.00000000
Ni      10.88842452      10.88842452       0.00000000
Ni      12.70316195      12.70316195       0.00000000
8
Lattice="1.8091173701940726e-18 1.8147374208134635 1.8147374208134635 10.888424524880781 9.073687104067318 1.8147374208134635 14.517899366507708 14.517899366507708 -4.773048300398239e-18" Properties=species:S:1:pos:R:3 mixing_energy=0.023795007539115343 energy=-36.759421710027155 pbc="T T T"
Cu       0.00000000       0.00000000       0.00000000
Cu       1.81473742       1.81473742       0.00000000
Ni       3.62947484       3.62947484       0.00000000
Cu       5.44421226       5.44421226       0.00000000
Cu       7.25894968       7.25894968       0.00000000
Ni       9.07368710       9.07368710       0.00000000
Ni      10.88842452      10.88842452       0.00000000
Ni      12.70316195      12.70316195       0.00000000
8
Lattice="1.8091173701940726e-18 1.8147374208134635 1.8147374208134635 10.888424524880781 9.073687104067318 1.8147374208134635 14.517899366507708 14.517899366507708 -4.773048300398239e-18" Properties=species:S:1:pos:R:3 mixing_energy=0.026140309775288362 energy=-38.485453197789475 pbc="T T T"
Cu       0.00000000       0.00000000       0.00000000
Cu       1.81473742       1.81473742       0.00000000
Ni       3.62947484       3.62947484       0.00000000
Cu       5.44421226       5.44421226       0.00000000
Ni       7.25894968       7.25894968       0.00000000
Ni       9.07368710       9.07368710       0.00000000
Ni      10.88842452      10.88842452       0.00000000
Ni      12.70316195      12.70316195       0.00000000
8
Lattice="1.8091173701940726e-18 1.8147374208134635 1.8147374208134635 10.888424524880781 9.073687104067318 1.8147374208134635 14.517899366507708 14.517899366507708 -4.773048300398239e-18" Properties=species:S:1:pos:R:3 mixing_energy=0.030225304210841575 energy=-38.45277324230505 pbc="T T T"
Cu       0.00000000       0.00000000       0.00000000
Cu       1.81473742       1.81473742       0.00000000
Ni       3.62947484       3.62947484       0.00000000
Ni       5.44421226       5.44421226       0.00000000
Cu       7.25894968       7.25894968       0.00000000
Ni       9.07368710       9.07368710       0.00000000
Ni      10.88842452      10.88842452       0.00000000
Ni      12.70316195      12.70316195       0.00000000
8
Lattice="1.8091173701940726e-18 1.8147374208134635 1.8147374208134635 10.888424524880781 9.073687104067318 1.8147374208134635 14.517899366507708 14.517899366507708 -4.773048300398239e-18" Properties=species:S:1:pos:R:3 mixing_energy=0.025334472149252996 energy=-40.23669380444946 pbc="T T T"
Cu       0.00000000       0.00000000       0.00000000
Cu       1.81473742       1.81473742       0.00000000
Ni       3.62947484       3.62947484       0.00000000
Ni       5.44421226       5.44421226       0.00000000
Ni       7.25894968       7.25894968       0.00000000
Ni       9.07368710       9.07368710       0.00000000
Ni      10.88842452      10.88842452       0.00000000
Ni      12.70316195      12.70316195       0.00000000
8
Lattice="1.8091173701940726e-18 1.8147374208134635 1.8147374208134635 10.888424524880781 9.073687104067318 1.8147374208134635 14.517899366507708 14.517899366507708 -4.773048300398239e-18" Properties=species:S:1:pos:R:3 mixing_energy=0.03510750817967567 energy=-38.41371561055438 pbc="T T T"
Cu       0.00000000       0.00000000       0.00000000
Ni       1.81473742       1.81473742       0.00000000
Cu       3.62947484       3.62947484       0.00000000
Ni       5.44421226       5.44421226       0.00000000
Cu       7.25894968       7.25894968       0.00000000
Ni       9.07368710       9.07368710       0.00000000
Ni      10.88842452      10.88842452       0.00000000
Ni      12.70316195      12.70316195       0.00000000
8
Lattice="1.8091173701940726e-18 1.8147374208134635 1.8147374208134635 10.888424524880781 9.073687104067318 1.8147374208134635 14.517899366507708 14.517899366507708 -4.773048300398239e-18" Properties=species:S:1:pos:R:3 mixing_energy=0.026813942788348477 energy=-40.224858039336695 pbc="T T T"
Cu       0.00000000       0.00000000       0.00000000
Ni       1.81473742       1.81473742       0.00000000
Cu       3.62947484       3.62947484       0.00000000
Ni       5.44421226       5.44421226       0.00000000
Ni       7.25894968       7.25894968       0.00000000
Ni       9.07368710       9.07368710       0.00000000
Ni      10.88842452      10.88842452       0.00000000
Ni      12.70316195      12.70316195       0.00000000
8
Lattice="1.8091173701940726e-18 1.8147374208134635 1.8147374208134635 10.888424524880781 9.073687104067318 1.8147374208134635 14.517899366507708 14.517899366507708 -4.773048300398239e-18" Properties=species:S:1:pos:R:3 mixing_energy=0.017595450182781747 energy=-42.04339988583293 pbc="T T T"
Cu       0.00000000       0.00000000       0.00000000
Ni       1.81473742       1.81473742       0.00000000
Ni       3.62947484       3.62947484       0.00000000
Ni       5.44421226       5.44421226       0.00000000
Ni       7.25894968       7.25894968       0.00000000
Ni       9.07368710       9.07368710       0.00000000
Ni      10.88842452      10.88842452       0.00000000
Ni      12.70316195      12.70316195       0.00000000
8
Lattice="1.8091173701940726e-18 1.8147374208134635 1.8147374208134635 12.703161945694244 10.888424524880781 1.8147374208134635 14.517899366507708 14.517899366507708 -4.773048300398239e-18" Properties=species:S:1:pos:R:3 mixing_energy=0.004232684684731036 energy=-31.68153857590712 pbc="T T T"
Cu       0.00000000       0.00000000       0.00000000
Cu       1.81473742       1.81473742       0.00000000
Cu       3.62947484       3.62947484       0.00000000
Cu       5.44421226       5.44421226       0.00000000
Cu       7.25894968       7.25894968       0.00000000
Cu       9.07368710       9.07368710      -0.00000000
Cu      10.88842452      10.88842452       0.00000000
Ni      12.70316195      12.70316195      -0.00000000
8
Lattice="1.8091173701940726e-18 1.8147374208134635 1.8147374208134635 12.703161945694244 10.888424524880781 1.8147374208134635 14.517899366507708 14.517899366507708 -4.773048300398239e-18" Properties=species:S:1:pos:R:3 mixing_energy=0.010313864662412575 energy=-33.37768304173737 pbc="T T T"
Cu       0.00000000       0.00000000       0.00000000
Cu       1.81473742       1.81473742       0.00000000
Cu       3.62947484       3.62947484       0.00000000
Cu       5.44421226       5.44421226       0.00000000
Cu       7.25894968       7.25894968       0.00000000
Cu       9.07368710       9.07368710      -0.00000000
Ni      10.88842452      10.88842452       0.00000000
Ni      12.70316195      12.70316195      -0.00000000
8
Lattice="1.8091173701940726e-18 1.8147374208134635 1.8147374208134635 12.703161945694244 10.888424524880781 1.8147374208134635 14.517899366507708 14.517899366507708 -4.773048300398239e-18" Properties=species:S:1:pos:R:3 mixing_energy=0.010330492858295903 energy=-33.377550016170304 pbc="T T T"
Cu       0.00000000       0.00000000       0.00000000
Cu       1.81473742       1.81473742       0.00000000
Cu       3.62947484       3.62947484       0.00000000
Cu       5.44421226       5.44421226       0.00000000
Cu       7.25894968       7.25894968       0.00000000
Ni       9.07368710       9.07368710      -0.00000000
Cu      10.88842452      10.88842452       0.00000000
Ni      12.70316195      12.70316195      -0.00000000
8
Lattice="1.8091173701940726e-18 1.8147374208134635 1.8147374208134635 12.703161945694244 10.888424524880781 1.8147374208134635 14.517899366507708 14.517899366507708 -4.773048300398239e-18" Properties=species:S:1:pos:R:3 mixing_energy=0.013710939958496038 energy=-35.095300345020405 pbc="T T T"
Cu       0.00000000       0.00000000       0.00000000
Cu       1.81473742       1.81473742       0.00000000
Cu       3.62947484       3.62947484       0.00000000
Cu       5.44421226       5.44421226       0.00000000
Cu       7.25894968       7.25894968       0.00000000
Ni       9.07368710       9.07368710      -0.00000000
Ni      10.88842452      10.88842452       0.00000000
Ni      12.70316195      12.70316195      -0.00000000
8
Lattice="1.8091173701940726e-18 1.8147374208134635 1.8147374208134635 12.703161945694244 10.888424524880781 1.8147374208134635 14.517899366507708 14.517899366507708 -4.773048300398239e-18" Properties=species:S:1:pos:R:3 mixing_energy=0.013126860163625187 energy=-33.35517907772767 pbc="T T T"
Cu       0.00000000       0.00000000       0.00000000
Cu       1.81473742       1.81473742       0.00000000
Cu       3.62947484       3.62947484       0.00000000
Cu       5.44421226       5.44421226       0.00000000
Ni       7.25894968       7.25894968       0.00000000
Cu       9.07368710       9.07368710      -0.00000000
Cu      10.88842452      10.88842452       0.00000000
Ni      12.70316195      12.70316195      -0.00000000
8
Lattice="1.8091173701940726e-18 1.8147374208134635 1.8147374208134635 12.703161945694244 10.888424524880781 1.8147374208134635 14.517899366507708 14.517899366507708 -4.773048300398239e-18" Properties=species:S:1:pos:R:3 mixing_energy=0.0183565837641404 energy=-35.05813519457525 pbc="T T T"
Cu       0.00000000       0.00000000       0.00000000
Cu       1.81473742       1.81473742       0.00000000
Cu       3.62947484       3.62947484       0.00000000
Cu       5.44421226       5.44421226       0.00000000
Ni       7.25894968       7.25894968       0.00000000
Cu       9.07368710       9.07368710      -0.00000000
Ni      10.88842452      10.88842452       0.00000000
Ni      12.70316195      12.70316195      -0.00000000
8
Lattice="1.8091173701940726e-18 1.8147374208134635 1.8147374208134635 12.703161945694244 10.888424524880781 1.8147374208134635 14.517899366507708 14.517899366507708 -4.773048300398239e-18" Properties=species:S:1:pos:R:3 mixing_energy=0.016461997000255746 energy=-36.81808579433803 pbc="T T T"
Cu       0.00000000       0.00000000       0.00000000
Cu       1.81473742       1.81473742       0.00000000
Cu       3.62947484       3.62947484       0.00000000
Cu       5.44421226       5.44421226       0.00000000
Ni       7.25894968       7.25894968       0.00000000
Ni       9.07368710       9.07368710      -0.00000000
Ni      10.88842452      10.88842452       0.00000000
Ni      12.70316195      12.70316195      -0.00000000
8
Lattice="1.8091173701940726e-18 1.8147374208134635 1.8147374208134635 12.703161945694244 10.888424524880781 1.8147374208134635 14.517899366507708 14.517899366507708 -4.773048300398239e-18" Properties=species:S:1:pos:R:3 mixing_energy=0.021049148190077194 energy=-35.036594679167756 pbc="T T T"
Cu       0.00000000       0.00000000       0.00000000
Cu       1.81473742       1.81473742       0.00000000
Cu       3.62947484       3.62947484       0.00000000
Ni       5.44421226       5.44421226       0.00000000
Cu       7.25894968       7.25894968       0.00000000
Cu       9.07368710       9.07368710      -0.00000000
Ni      10.88842452      10.88842452       0.00000000
Ni      12.70316195      12.70316195      -0.00000000
8
Lattice="1.8091173701940726e-18 1.8147374208134635 1.8147374208134635 12.703161945694244 10.888424524880781 1.8147374208134635 14.517899366507708 14.517899366507708 -4.773048300398239e-18" Properties=species:S:1:pos:R:3 mixing_energy=0.017158076329784056 energy=-35.0677232540501 pbc="T T T"
Cu       0.00000000       0.00000000       0.00000000
Cu       1.81473742       1.81473742       0.00000000
Cu       3.62947484       3.62947484       0.00000000
Ni       5.44421226       5.44421226       0.00000000
Cu       7.25894968       7.25894968       0.00000000
Ni       9.07368710       9.07368710      -0.00000000
Cu      10.88842452      10.88842452       0.00000000
Ni      12.70316195      12.70316195      -0.00000000
8
Lattice="1.8091173701940726e-18 1.8147374208134635 1.8147374208134635 12.703161945694244 10.888424524880781 1.8147374208134635 14.517899366507708 14.517899366507708 -4.773048300398239e-18" Properties=species:S:1:pos:R:3 mixing_energy=0.021370935510127698 energy=-36.778814286259056 pbc="T T T"
Cu       0.00000000       0.00000000       0.00000000
Cu       1.81473742       1.81473742       0.00000000
Cu       3.62947484       3.62947484       0.00000000
Ni       5.44421226       5.44421226       0.00000000
Cu       7.25894968       7.25894968       0.00000000
Ni       9.07368710       9.07368710      -0.00000000
Ni      10.88842452      10.88842452       0.00000000
Ni      12.70316195      12.70316195      -0.00000000
8
Lattice="1.8091173701940726e-18 1.8147374208134635 1.8147374208134635 12.703161945694244 10.888424524880781 1.8147374208134635 14.517899366507708 14.517899366507708 -4.773048300398239e-18" Properties=species:S:1:pos:R:3 mixing_energy=0.026886543491429382 energy=-36.73468942240864 pbc="T T T"
Cu       0.00000000       0.00000000       0.00000000
Cu       1.81473742       1.81473742       0.00000000
Cu       3.62947484       3.62947484       0.00000000
Ni       5.44421226       5.44421226       0.00000000
Ni       7.25894968       7.25894968       0.00000000
Cu       9.07368710       9.07368710      -0.00000000
Ni      10.88842452      10.88842452       0.00000000
Ni      12.70316195      12.70316195      -0.00000000
8
Lattice="1.8091173701940726e-18 1.8147374208134635 1.8147374208134635 12.703161945694244 10.888424524880781 1.8147374208134635 14.517899366507708 14.517899366507708 -4.773048300398239e-18" Properties=species:S:1:pos:R:3 mixing_energy=0.017846572534633953 energy=-38.55180309571471 pbc="T T T"
Cu       0.00000000       0.00000000       0.00000000
Cu       1.81473742       1.81473742       0.00000000
Cu       3.62947484       3.62947484       0.00000000
Ni       5.44421226       5.44421226       0.00000000
Ni       7.25894968       7.25894968       0.00000000
Ni       9.07368710       9.07368710      -0.00000000
Ni      10.88842452      10.88842452       0.00000000
Ni      12.70316195      12.70316195      -0.00000000
8
Lattice="1.8091173701940726e-18 1.8147374208134635 1.8147374208134635 12.703161945694244 10.888424524880781 1.8147374208134635 14.517899366507708 14.517899366507708 -4.773048300398239e-18" Properties=species:S:1:pos:R:3 mixing_energy=0.023525984974440473 energy=-35.01677998489285 pbc="T T T"
Cu       0.00000000       0.00000000       0.00000000
Cu       1.81473742       1.81473742       0.00000000
Ni       3.62947484       3.62947484       0.00000000
Cu       5.44421226       5.44421226       0.00000000
Cu       7.25894968       7.25894968       0.00000000
Ni       9.07368710       9.07368710      -0.00000000
Cu      10.88842452      10.88842452       0.00000000
Ni      12.70316195      12.70316195      -0.00000000
8
Lattice="1.8091173701940726e-18 1.8147374208134635 1.8147374208134635 12.703161945694244 10.888424524880781 1.8147374208134635 14.517899366507708 14.517899366507708 -4.773048300398239e-18" Properties=species:S:1:pos:R:3 mixing_energy=0.02735946213522089 energy=-36.73090607325831 pbc="T T T"
Cu       0.00000000       0.00000000       0.00000000
Cu       1.81473742       1.81473742       0.00000000
Ni       3.62947484       3.62947484       0.00000000
Cu       5.44421226       5.44421226       0.00000000
Cu       7.25894968       7.25894968       0.00000000
Ni       9.07368710       9.07368710      -0.00000000
Ni      10.88842452      10.88842452       0.00000000
Ni      12.70316195      12.70316195      -0.00000000
8
Lattice="1.8091173701940726e-18 1.8147374208134635 1.8147374208134635 12.703161945694244 10.888424524880781 1.8147374208134635 14.517899366507708 14.517899366507708 -4.773048300398239e-18" Properties=species:S:1:pos:R:3 mixing_energy=0.028317330064765667 energy=-36.72324312982195 pbc="T T T"
Cu       0.00000000       0.00000000       0.00000000
Cu       1.81473742       1.81473742       0.00000000
Ni       3.62947484       3.62947484       0.00000000
Cu       5.44421226       5.44421226       0.00000000
Ni       7.25894968       7.25894968       0.00000000
Cu       9.07368710       9.07368710      -0.00000000
Ni      10.88842452      10.88842452       0.00000000
Ni      12.70316195      12.70316195      -0.00000000
8
Lattice="1.8091173701940726e-18 1.8147374208134635 1.8147374208134635 12.703161945694244 10.888424524880781 1.8147374208134635 14.517899366507708 14.517899366507708 -4.773048300398239e-18" Properties=species:S:1:pos:R:3 mixing_energy=0.030096989332960344 energy=-36.709005855676395 pbc="T T T"
Cu       0.00000000       0.00000000       0.00000000
Cu       1.81473742       1.81473742       0.00000000
Ni       3.62947484       3.62947484       0.00000000
Cu       5.44421226       5.44421226       0.00000000
Ni       7.25894968       7.25894968       0.00000000
Ni       9.07368710       9.07368710      -0.00000000
Cu      10.88842452      10.88842452       0.00000000
Ni      12.70316195      12.70316195      -0.00000000
8
Lattice="1.8091173701940726e-18 1.8147374208134635 1.8147374208134635 12.703161945694244 10.888424524880781 1.8147374208134635 14.517899366507708 14.517899366507708 -4.773048300398239e-18" Properties=species:S:1:pos:R:3 mixing_energy=0.026812310851308307 energy=-38.480077189181316 pbc="T T T"
Cu       0.00000000       0.00000000       0.00000000
Cu       1.81473742       1.81473742       0.00000000
Ni       3.62947484       3.62947484       0.00000000
Cu       5.44421226       5.44421226       0.00000000
Ni       7.25894968       7.25894968       0.00000000
Ni       9.07368710       9.07368710      -0.00000000
Ni      10.88842452      10.88842452       0.00000000
Ni      12.70316195      12.70316195      -0.00000000
8
Lattice="1.8091173701940726e-18 1.8147374208134635 1.8147374208134635 12.703161945694244 10.888424524880781 1.8147374208134635 14.517899366507708 14.517899366507708 -4.773048300398239e-18" Properties=species:S:1:pos:R:3 mixing_energy=0.03173342010429048 energy=-38.44070831515746 pbc="T T T"
Cu       0.00000000       0.00000000       0.00000000
Cu       1.81473742       1.81473742       0.00000000
Ni       3.62947484       3.62947484       0.00000000
Ni       5.44421226       5.44421226       0.00000000
Cu       7.25894968       7.25894968       0.00000000
Ni       9.07368710       9.07368710      -0.00000000
Ni      10.88842452      10.88842452       0.00000000
Ni      12.70316195      12.70316195      -0.00000000
8
Lattice="1.8091173701940726e-18 1.8147374208134635 1.8147374208134635 12.703161945694244 10.888424524880781 1.8147374208134635 14.517899366507708 14.517899366507708 -4.773048300398239e-18" Properties=species:S:1:pos:R:3 mixing_energy=0.02099098504606811 energy=-40.27144170127494 pbc="T T T"
Cu       0.00000000       0.00000000       0.00000000
Cu       1.81473742       1.81473742       0.00000000
Ni       3.62947484       3.62947484       0.00000000
Ni       5.44421226       5.44421226       0.00000000
Ni       7.25894968       7.25894968       0.00000000
Ni       9.07368710       9.07368710      -0.00000000
Ni      10.88842452      10.88842452       0.00000000
Ni      12.70316195      12.70316195      -0.00000000
8
Lattice="1.8091173701940726e-18 1.8147374208134635 1.8147374208134635 12.703161945694244 10.888424524880781 1.8147374208134635 14.517899366507708 14.517899366507708 -4.773048300398239e-18" Properties=species:S:1:pos:R:3 mixing_energy=0.02651035728343265 energy=-38.48249281772432 pbc="T T T"
Cu       0.00000000       0.00000000       0.00000000
Ni       1.81473742       1.81473742       0.00000000
Cu       3.62947484       3.62947484       0.00000000
Ni       5.44421226       5.44421226       0.00000000
Cu       7.25894968       7.25894968       0.00000000
Ni       9.07368710       9.07368710      -0.00000000
Ni      10.88842452      10.88842452       0.00000000
Ni      12.70316195      12.70316195      -0.00000000
8
Lattice="1.8091173701940726e-18 1.8147374208134635 1.8147374208134635 12.703161945694244 10.888424524880781 1.8147374208134635 14.517899366507708 14.517899366507708 -4.773048300398239e-18" Properties=species:S:1:pos:R:3 mixing_energy=0.035045492591951 energy=-38.414211735256174 pbc="T T T"
Cu       0.00000000       0.00000000       0.00000000
Ni       1.81473742       1.81473742       0.00000000
Cu       3.62947484       3.62947484       0.00000000
Ni       5.44421226       5.44421226       0.00000000
Ni       7.25894968       7.25894968       0.00000000
Cu       9.07368710       9.07368710      -0.00000000
Ni      10.88842452      10.88842452       0.00000000
Ni      12.70316195      12.70316195      -0.00000000
8
Lattice="1.8091173701940726e-18 1.8147374208134635 1.8147374208134635 12.703161945694244 10.888424524880781 1.8147374208134635 14.517899366507708 14.517899366507708 -4.773048300398239e-18" Properties=species:S:1:pos:R:3 mixing_energy=0.02334139128953705 energy=-40.252638451327186 pbc="T T T"
Cu       0.00000000       0.00000000       0.00000000
Ni       1.81473742       1.81473742       0.00000000
Cu       3.62947484       3.62947484       0.00000000
Ni       5.44421226       5.44421226       0.00000000
Ni       7.25894968       7.25894968       0.00000000
Ni       9.07368710       9.07368710      -0.00000000
Ni      10.88842452      10.88842452       0.00000000
Ni      12.70316195      12.70316195      -0.00000000
8
Lattice="1.8091173701940726e-18 1.8147374208134635 1.8147374208134635 12.703161945694244 10.888424524880781 1.8147374208134635 14.517899366507708 14.517899366507708 -4.773048300398239e-18" Properties=species:S:1:pos:R:3 mixing_energy=0.031162912456188074 energy=-40.19006628199398 pbc="T T T"
Cu       0.00000000       0.00000000       0.00000000
Ni       1.81473742       1.81473742       0.00000000
Ni       3.62947484       3.62947484       0.00000000
Cu       5.44421226       5.44421226       0.00000000
Ni       7.25894968       7.25894968       0.00000000
Ni       9.07368710       9.07368710      -0.00000000
Ni      10.88842452      10.88842452       0.00000000
Ni      12.70316195      12.70316195      -0.00000000
8
Lattice="1.8091173701940726e-18 1.8147374208134635 1.8147374208134635 12.703161945694244 10.888424524880781 1.8147374208134635 14.517899366507708 14.517899366507708 -4.773048300398239e-18" Properties=species:S:1:pos:R:3 mixing_energy=0.01696156596635312 energy=-42.04847095956436 pbc="T T T"
Cu       0.00000000       0.00000000       0.00000000
Ni       1.81473742       1.81473742       0.00000000
Ni       3.62947484       3.62947484       0.00000000
Ni       5.44421226       5.44421226       0.00000000
Ni       7.25894968       7.25894968       0.00000000
Ni       9.07368710       9.07368710      -0.00000000
Ni      10.88842452      10.88842452       0.00000000
Ni      12.70316195      12.70316195      -0.00000000
8
Lattice="1.8091173701940726e-18 1.8147374208134635 1.8147374208134635 14.517899366507708 12.703161945694244 1.8147374208134635 14.517899366507708 14.517899366507708 -4.773048300398239e-18" Properties=species:S:1:pos:R:3 mixing_energy=0.005801737969448051 energy=-31.668986149629383 pbc="T T T"
Cu       0.00000000       0.00000000       0.00000000
Cu       1.81473742       1.81473742      -0.00000000
Cu       3.62947484       3.62947484      -0.00000000
Cu       5.44421226       5.44421226      -0.00000000
Cu       7.25894968       7.25894968      -0.00000000
Cu       9.07368710       9.07368710      -0.00000000
Cu      10.88842452      10.88842452      -0.00000000
Ni      12.70316195      12.70316195      -0.00000000
8
Lattice="1.8091173701940726e-18 1.8147374208134635 1.8147374208134635 14.517899366507708 12.703161945694244 1.8147374208134635 14.517899366507708 14.517899366507708 -4.773048300398239e-18" Properties=species:S:1:pos:R:3 mixing_energy=0.00880433414970816 energy=-33.389759285839006 pbc="T T T"
Cu       0.00000000       0.00000000       0.00000000
Cu       1.81473742       1.81473742      -0.00000000
Cu       3.62947484       3.62947484      -0.00000000
Cu       5.44421226       5.44421226      -0.00000000
Cu       7.25894968       7.25894968      -0.00000000
Cu       9.07368710       9.07368710      -0.00000000
Ni      10.88842452      10.88842452      -0.00000000
Ni      12.70316195      12.70316195      -0.00000000
8
Lattice="1.8091173701940726e-18 1.8147374208134635 1.8147374208134635 14.517899366507708 12.703161945694244 1.8147374208134635 14.517899366507708 14.517899366507708 -4.773048300398239e-18" Properties=species:S:1:pos:R:3 mixing_energy=0.015542135224798193 energy=-33.335856877238285 pbc="T T T"
Cu       0.00000000       0.00000000       0.00000000
Cu       1.81473742       1.81473742      -0.00000000
Cu       3.62947484       3.62947484      -0.00000000
Cu       5.44421226       5.44421226      -0.00000000
Cu       7.25894968       7.25894968      -0.00000000
Ni       9.07368710       9.07368710      -0.00000000
Cu      10.88842452      10.88842452      -0.00000000
Ni      12.70316195      12.70316195      -0.00000000
8
Lattice="1.8091173701940726e-18 1.8147374208134635 1.8147374208134635 14.517899366507708 12.703161945694244 1.8147374208134635 14.517899366507708 14.517899366507708 -4.773048300398239e-18" Properties=species:S:1:pos:R:3 mixing_energy=0.010800708036445617 energy=-35.11858220039681 pbc="T T T"
Cu       0.00000000       0.00000000       0.00000000
Cu       1.81473742       1.81473742      -0.00000000
Cu       3.62947484       3.62947484      -0.00000000
Cu       5.44421226       5.44421226      -0.00000000
Cu       7.25894968       7.25894968      -0.00000000
Ni       9.07368710       9.07368710      -0.00000000
Ni      10.88842452      10.88842452      -0.00000000
Ni      12.70316195      12.70316195      -0.00000000
8
Lattice="1.8091173701940726e-18 1.8147374208134635 1.8147374208134635 14.517899366507708 12.703161945694244 1.8147374208134635 14.517899366507708 14.517899366507708 -4.773048300398239e-18" Properties=species:S:1:pos:R:3 mixing_energy=0.011988805594748575 energy=-33.36428351427868 pbc="T T T"
Cu       0.00000000       0.00000000       0.00000000
Cu       1.81473742       1.81473742      -0.00000000
Cu       3.62947484       3.62947484      -0.00000000
Cu       5.44421226       5.44421226      -0.00000000
Ni       7.25894968       7.25894968      -0.00000000
Cu       9.07368710       9.07368710      -0.00000000
Cu      10.88842452      10.88842452      -0.00000000
Ni      12.70316195      12.70316195      -0.00000000
8
Lattice="1.8091173701940726e-18 1.8147374208134635 1.8147374208134635 14.517899366507708 12.703161945694244 1.8147374208134635 14.517899366507708 14.517899366507708 -4.773048300398239e-18" Properties=species:S:1:pos:R:3 mixing_energy=0.017360146320395398 energy=-35.06610669412521 pbc="T T T"
Cu       0.00000000       0.00000000       0.00000000
Cu       1.81473742       1.81473742      -0.00000000
Cu       3.62947484       3.62947484      -0.00000000
Cu       5.44421226       5.44421226      -0.00000000
Ni       7.25894968       7.25894968      -0.00000000
Cu       9.07368710       9.07368710      -0.00000000
Ni      10.88842452      10.88842452      -0.00000000
Ni      12.70316195      12.70316195      -0.00000000
8
Lattice="1.8091173701940726e-18 1.8147374208134635 1.8147374208134635 14.517899366507708 12.703161945694244 1.8147374208134635 14.517899366507708 14.517899366507708 -4.773048300398239e-18" Properties=species:S:1:pos:R:3 mixing_energy=0.01045398599248104 energy=-36.86614988240023 pbc="T T T"
Cu       0.00000000       0.00000000       0.00000000
Cu       1.81473742       1.81473742      -0.00000000
Cu       3.62947484       3.62947484      -0.00000000
Cu       5.44421226       5.44421226      -0.00000000
Ni       7.25894968       7.25894968      -0.00000000
Ni       9.07368710       9.07368710      -0.00000000
Ni      10.88842452      10.88842452      -0.00000000
Ni      12.70316195      12.70316195      -0.00000000
8
Lattice="1.8091173701940726e-18 1.8147374208134635 1.8147374208134635 14.517899366507708 12.703161945694244 1.8147374208134635 14.517899366507708 14.517899366507708 -4.773048300398239e-18" Properties=species:S:1:pos:R:3 mixing_energy=0.01384867275729773 energy=-35.09419848262999 pbc="T T T"
Cu       0.00000000       0.00000000       0.00000000
Cu       1.81473742       1.81473742      -0.00000000
Cu       3.62947484       3.62947484      -0.00000000
Ni       5.44421226       5.44421226      -0.00000000
Cu       7.25894968       7.25894968      -0.00000000
Cu       9.07368710       9.07368710      -0.00000000
Ni      10.88842452      10.88842452      -0.00000000
Ni      12.70316195      12.70316195      -0.00000000
8
Lattice="1.8091173701940726e-18 1.8147374208134635 1.8147374208134635 14.517899366507708 12.703161945694244 1.8147374208134635 14.517899366507708 14.517899366507708 -4.773048300398239e-18" Properties=species:S:1:pos:R:3 mixing_energy=0.024821496927241338 energy=-35.00641588927044 pbc="T T T"
Cu       0.00000000       0.00000000       0.00000000
Cu       1.81473742       1.81473742      -0.00000000
Cu       3.62947484       3.62947484      -0.00000000
Ni       5.44421226       5.44421226      -0.00000000
Cu       7.25894968       7.25894968      -0.00000000
Ni       9.07368710       9.07368710      -0.00000000
Cu      10.88842452      10.88842452      -0.00000000
Ni      12.70316195      12.70316195      -0.00000000
8
Lattice="1.8091173701940726e-18 1.8147374208134635 1.8147374208134635 14.517899366507708 12.703161945694244 1.8147374208134635 14.517899366507708 14.517899366507708 -4.773048300398239e-18" Properties=species:S:1:pos:R:3 mixing_energy=0.018770445593290663 energy=-36.79961820559375 pbc="T T T"
Cu       0.00000000       0.00000000       0.00000000
Cu       1.81473742       1.81473742      -0.00000000
Cu       3.62947484       3.62947484      -0.00000000
Ni       5.44421226       5.44421226      -0.00000000
Cu       7.25894968       7.25894968      -0.00000000
Ni       9.07368710       9.07368710      -0.00000000
Ni      10.88842452      10.88842452      -0.00000000
Ni      12.70316195      12.70316195      -0.00000000
8
Lattice="1.8091173701940726e-18 1.8147374208134635 1.8147374208134635 14.517899366507708 12.703161945694244 1.8147374208134635 14.517899366507708 14.517899366507708 -4.773048300398239e-18" Properties=species:S:1:pos:R:3 mixing_energy=0.018415522227932524 energy=-36.80245759251662 pbc="T T T"
Cu       0.00000000       0.00000000       0.00000000
Cu       1.81473742       1.81473742      -0.00000000
Cu       3.62947484       3.62947484      -0.00000000
Ni       5.44421226       5.44421226      -0.00000000
Ni       7.25894968       7.25894968      -0.00000000
Cu       9.07368710       9.07368710      -0.00000000
Ni      10.88842452      10.88842452      -0.00000000
Ni      12.70316195      12.70316195      -0.00000000
8
Lattice="1.8091173701940726e-18 1.8147374208134635 1.8147374208134635 14.517899366507708 12.703161945694244 1.8147374208134635 14.517899366507708 14.517899366507708 -4.773048300398239e-18" Properties=species:S:1:pos:R:3 mixing_energy=0.009629460598602702 energy=-38.61753999120296 pbc="T T T"
Cu       0.00000000       0.00000000       0.00000000
Cu       1.81473742       1.81473742      -0.00000000
Cu       3.62947484       3.62947484      -0.00000000
Ni       5.44421226       5.44421226      -0.00000000
Ni       7.25894968       7.25894968      -0.00000000
Ni       9.07368710       9.07368710      -0.00000000
Ni      10.88842452      10.88842452      -0.00000000
Ni      12.70316195      12.70316195      -0.00000000
8
Lattice="1.8091173701940726e-18 1.8147374208134635 1.8147374208134635 14.517899366507708 12.703161945694244 1.8147374208134635 14.517899366507708 14.517899366507708 -4.773048300398239e-18" Properties=species:S:1:pos:R:3 mixing_energy=0.02215928070907358 energy=-35.027713619015785 pbc="T T T"
Cu       0.00000000       0.00000000       0.00000000
Cu       1.81473742       1.81473742      -0.00000000
Ni       3.62947484       3.62947484      -0.00000000
Cu       5.44421226       5.44421226      -0.00000000
Cu       7.25894968       7.25894968      -0.00000000
Ni       9.07368710       9.07368710      -0.00000000
Cu      10.88842452      10.88842452      -0.00000000
Ni      12.70316195      12.70316195      -0.00000000
8
Lattice="1.8091173701940726e-18 1.8147374208134635 1.8147374208134635 14.517899366507708 12.703161945694244 1.8147374208134635 14.517899366507708 14.517899366507708 -4.773048300398239e-18" Properties=species:S:1:pos:R:3 mixing_energy=0.016276484701242655 energy=-36.81956989273014 pbc="T T T"
Cu       0.00000000       0.00000000       0.00000000
Cu       1.81473742       1.81473742      -0.00000000
Ni       3.62947484       3.62947484      -0.00000000
Cu       5.44421226       5.44421226      -0.00000000
Cu       7.25894968       7.25894968      -0.00000000
Ni       9.07368710       9.07368710      -0.00000000
Ni      10.88842452      10.88842452      -0.00000000
Ni      12.70316195      12.70316195      -0.00000000
8
Lattice="1.8091173701940726e-18 1.8147374208134635 1.8147374208134635 14.517899366507708 12.703161945694244 1.8147374208134635 14.517899366507708 14.517899366507708 -4.773048300398239e-18" Properties=species:S:1:pos:R:3 mixing_energy=0.0269639050949535 energy=-36.73407052958045 pbc="T T T"
Cu       0.00000000       0.00000000       0.00000000
Cu       1.81473742       1.81473742      -0.00000000
Ni       3.62947484       3.62947484      -0.00000000
Cu       5.44421226       5.44421226      -0.00000000
Ni       7.25894968       7.25894968      -0.00000000
Cu       9.07368710       9.07368710      -0.00000000
Ni      10.88842452      10.88842452      -0.00000000
Ni      12.70316195      12.70316195      -0.00000000
8
Lattice="1.8091173701940726e-18 1.8147374208134635 1.8147374208134635 14.517899366507708 12.703161945694244 1.8147374208134635 14.517899366507708 14.517899366507708 -4.773048300398239e-18" Properties=species:S:1:pos:R:3 mixing_energy=0.026484324344574706 energy=-36.73790717558348 pbc="T T T"
Cu       0.00000000       0.00000000       0.00000000
Cu       1.81473742       1.81473742      -0.00000000
Ni       3.62947484       3.62947484      -0.00000000
Cu       5.44421226       5.44421226      -0.00000000
Ni       7.25894968       7.25894968      -0.00000000
Ni       9.07368710       9.07368710      -0.00000000
Cu      10.88842452      10.88842452      -0.00000000
Ni      12.70316195      12.70316195      -0.00000000
8
Lattice="1.8091173701940726e-18 1.8147374208134635 1.8147374208134635 14.517899366507708 12.703161945694244 1.8147374208134635 14.517899366507708 14.517899366507708 -4.773048300398239e-18" Properties=species:S:1:pos:R:3 mixing_energy=0.01902511705130072 energy=-38.542374739581376 pbc="T T T"
Cu       0.00000000       0.00000000       0.00000000
Cu       1.81473742       1.81473742      -0.00000000
Ni       3.62947484       3.62947484      -0.00000000
Cu       5.44421226       5.44421226      -0.00000000
Ni       7.25894968       7.25894968      -0.00000000
Ni       9.07368710       9.07368710      -0.00000000
Ni      10.88842452      10.88842452      -0.00000000
Ni      12.70316195      12.70316195      -0.00000000
8
Lattice="1.8091173701940726e-18 1.8147374208134635 1.8147374208134635 14.517899366507708 12.703161945694244 1.8147374208134635 14.517899366507708 14.517899366507708 -4.773048300398239e-18" Properties=species:S:1:pos:R:3 mixing_energy=0.020152027755924617 energy=-38.533359453944385 pbc="T T T"
Cu       0.00000000       0.00000000       0.00000000
Cu       1.81473742       1.81473742      -0.00000000
Ni       3.62947484       3.62947484      -0.00000000
Ni       5.44421226       5.44421226      -0.00000000
Cu       7.25894968       7.25894968      -0.00000000
Ni       9.07368710       9.07368710      -0.00000000
Ni      10.88842452      10.88842452      -0.00000000
Ni      12.70316195      12.70316195      -0.00000000
8
Lattice="1.8091173701940726e-18 1.8147374208134635 1.8147374208134635 14.517899366507708 12.703161945694244 1.8147374208134635 14.517899366507708 14.517899366507708 -4.773048300398239e-18" Properties=species:S:1:pos:R:3 mixing_energy=0.009400587020965467 energy=-40.36416488547576 pbc="T T T"
Cu       0.00000000       0.00000000       0.00000000
Cu       1.81473742       1.81473742      -0.00000000
Ni       3.62947484       3.62947484      -0.00000000
Ni       5.44421226       5.44421226      -0.00000000
Ni       7.25894968       7.25894968      -0.00000000
Ni       9.07368710       9.07368710      -0.00000000
Ni      10.88842452      10.88842452      -0.00000000
Ni      12.70316195      12.70316195      -0.00000000
8
Lattice="1.8091173701940726e-18 1.8147374208134635 1.8147374208134635 14.517899366507708 12.703161945694244 1.8147374208134635 14.517899366507708 14.517899366507708 -4.773048300398239e-18" Properties=species:S:1:pos:R:3 mixing_energy=0.03189195620149077 energy=-38.439440026379856 pbc="T T T"
Cu       0.00000000       0.00000000       0.00000000
Ni       1.81473742       1.81473742      -0.00000000
Cu       3.62947484       3.62947484      -0.00000000
Ni       5.44421226       5.44421226      -0.00000000
Cu       7.25894968       7.25894968      -0.00000000
Ni       9.07368710       9.07368710      -0.00000000
Ni      10.88842452      10.88842452      -0.00000000
Ni      12.70316195      12.70316195      -0.00000000
8
Lattice="1.8091173701940726e-18 1.8147374208134635 1.8147374208134635 14.517899366507708 12.703161945694244 1.8147374208134635 14.517899366507708 14.517899366507708 -4.773048300398239e-18" Properties=species:S:1:pos:R:3 mixing_energy=0.030726702552049456 energy=-38.448762055575386 pbc="T T T"
Cu       0.00000000       0.00000000       0.00000000
Ni       1.81473742       1.81473742      -0.00000000
Cu       3.62947484       3.62947484      -0.00000000
Ni       5.44421226       5.44421226      -0.00000000
Ni       7.25894968       7.25894968      -0.00000000
Cu       9.07368710       9.07368710      -0.00000000
Ni      10.88842452      10.88842452      -0.00000000
Ni      12.70316195      12.70316195      -0.00000000
8
Lattice="1.8091173701940726e-18 1.8147374208134635 1.8147374208134635 14.517899366507708 12.703161945694244 1.8147374208134635 14.517899366507708 14.517899366507708 -4.773048300398239e-18" Properties=species:S:1:pos:R:3 mixing_energy=0.021993291993585906 energy=-40.263423245694796 pbc="T T T"
Cu       0.00000000       0.00000000       0.00000000
Ni       1.81473742       1.81473742      -0.00000000
Cu       3.62947484       3.62947484      -0.00000000
Ni       5.44421226       5.44421226      -0.00000000
Ni       7.25894968       7.25894968      -0.00000000
Ni       9.07368710       9.07368710      -0.00000000
Ni      10.88842452      10.88842452      -0.00000000
Ni      12.70316195      12.70316195      -0.00000000
8
Lattice="1.8091173701940726e-18 1.8147374208134635 1.8147374208134635 14.517899366507708 12.703161945694244 1.8147374208134635 14.517899366507708 14.517899366507708 -4.773048300398239e-18" Properties=species:S:1:pos:R:3 mixing_energy=0.022594483562359713 energy=-40.258613713144605 pbc="T T T"
Cu       0.00000000       0.00000000       0.00000000
Ni       1.81473742       1.81473742      -0.00000000
Ni       3.62947484       3.62947484      -0.00000000
Cu       5.44421226       5.44421226      -0.00000000
Ni       7.25894968       7.25894968      -0.00000000
Ni       9.07368710       9.07368710      -0.00000000
Ni      10.88842452      10.88842452      -0.00000000
Ni      12.70316195      12.70316195      -0.00000000
8
Lattice="1.8091173701940726e-18 1.8147374208134635 1.8147374208134635 14.517899366507708 12.703161945694244 1.8147374208134635 14.517899366507708 14.517899366507708 -4.773048300398239e-18" Properties=species:S:1:pos:R:3 mixing_energy=0.01204105704815106 energy=-42.08783503090998 pbc="T T T"
Cu       0.00000000       0.00000000       0.00000000
Ni       1.81473742       1.81473742      -0.00000000
Ni       3.62947484       3.62947484      -0.00000000
Ni       5.44421226       5.44421226      -0.00000000
Ni       7.25894968       7.25894968      -0.00000000
Ni       9.07368710       9.07368710      -0.00000000
Ni      10.88842452      10.88842452      -0.00000000
Ni      12.70316195      12.70316195      -0.00000000
8
Lattice="1.8147374208134635 3.629474841626927 1.8147374208134635 5.444212262440391 3.629474841626927 1.8147374208134635 14.517899366507708 14.517899366507708 -4.773048300398239e-18" Properties=species:S:1:pos:R:3 mixing_energy=0.00440154357903022 energy=-31.680187704752726 pbc="T T T"
Cu       0.00000000       0.00000000       0.00000000
Cu       1.81473742       1.81473742      -0.00000000
Cu       3.62947484       3.62947484      -0.00000000
Cu       5.44421226       5.44421226      -0.00000000
Cu       7.25894968       7.25894968      -0.00000000
Cu       9.07368710       9.07368710      -0.00000000
Cu      10.88842452      10.88842452      -0.00000000
Ni      12.70316195      12.70316195      -0.00000000
8
Lattice="1.8147374208134635 3.629474841626927 1.8147374208134635 5.444212262440391 3.629474841626927 1.8147374208134635 14.517899366507708 14.517899366507708 -4.773048300398239e-18" Properties=species:S:1:pos:R:3 mixing_energy=0.010957683013275377 energy=-33.37253249493047 pbc="T T T"
Cu       0.00000000       0.00000000       0.00000000
Cu       1.81473742       1.81473742      -0.00000000
Cu       3.62947484       3.62947484      -0.00000000
Cu       5.44421226       5.44421226      -0.00000000
Cu       7.25894968       7.25894968      -0.00000000
Cu       9.07368710       9.07368710      -0.00000000
Ni      10.88842452      10.88842452      -0.00000000
Ni      12.70316195      12.70316195      -0.00000000
8
Lattice="1.8147374208134635 3.629474841626927 1.8147374208134635 5.444212262440391 3.629474841626927 1.8147374208134635 14.517899366507708 14.517899366507708 -4.773048300398239e-18" Properties=species:S:1:pos:R:3 mixing_energy=0.01275612577177454 energy=-33.358144952862474 pbc="T T T"
Cu       0.00000000       0.00000000       0.00000000
Cu       1.81473742       1.81473742      -0.00000000
Cu       3.62947484       3.62947484      -0.00000000
Cu       5.44421226       5.44421226      -0.00000000
Cu       7.25894968       7.25894968      -0.00000000
Ni       9.07368710       9.07368710      -0.00000000
Cu      10.88842452      10.88842452      -0.00000000
Ni      12.70316195      12.70316195      -0.00000000
8
Lattice="1.8147374208134635 3.629474841626927 1.8147374208134635 5.444212262440391 3.629474841626927 1.8147374208134635 14.517899366507708 14.517899366507708 -4.773048300398239e-18" Properties=species:S:1:pos:R:3 mixing_energy=0.01703996315536349 energy=-35.068668159445465 pbc="T T T"
Cu       0.00000000       0.00000000       0.00000000
Cu       1.81473742       1.81473742      -0.00000000
Cu       3.62947484       3.62947484      -0.00000000
Cu       5.44421226       5.44421226      -0.00000000
Cu       7.25894968       7.25894968      -0.00000000
Ni       9.07368710       9.07368710      -0.00000000
Ni      10.88842452      10.88842452      -0.00000000
Ni      12.70316195      12.70316195      -0.00000000
8
Lattice="1.8147374208134635 3.629474841626927 1.8147374208134635 5.444212262440391 3.629474841626927 1.8147374208134635 14.517899366507708 14.517899366507708 -4.773048300398239e-18" Properties=species:S:1:pos:R:3 mixing_energy=0.01394985844825647 energy=-33.34859509145062 pbc="T T T"
Cu       0.00000000       0.00000000       0.00000000
Cu       1.81473742       1.81473742      -0.00000000
Cu       3.62947484       3.62947484      -0.00000000
Cu       5.44421226       5.44421226      -0.00000000
Ni       7.25894968       7.25894968      -0.00000000
Cu       9.07368710       9.07368710      -0.00000000
Cu      10.88842452      10.88842452      -0.00000000
Ni      12.70316195      12.70316195      -0.00000000
8
Lattice="1.8147374208134635 3.629474841626927 1.8147374208134635 5.444212262440391 3.629474841626927 1.8147374208134635 14.517899366507708 14.517899366507708 -4.773048300398239e-18" Properties=species:S:1:pos:R:3 mixing_energy=0.02122335941105069 energy=-35.03520098939997 pbc="T T T"
Cu       0.00000000       0.00000000       0.00000000
Cu       1.81473742       1.81473742      -0.00000000
Cu       3.62947484       3.62947484      -0.00000000
Cu       5.44421226       5.44421226      -0.00000000
Ni       7.25894968       7.25894968      -0.00000000
Cu       9.07368710       9.07368710      -0.00000000
Ni      10.88842452      10.88842452      -0.00000000
Ni      12.70316195      12.70316195      -0.00000000
8
Lattice="1.8147374208134635 3.629474841626927 1.8147374208134635 5.444212262440391 3.629474841626927 1.8147374208134635 14.517899366507708 14.517899366507708 -4.773048300398239e-18" Properties=species:S:1:pos:R:3 mixing_energy=0.021892020268832635 energy=-36.77464560818942 pbc="T T T"
Cu       0.00000000       0.00000000       0.00000000
Cu       1.81473742       1.81473742      -0.00000000
Cu       3.62947484       3.62947484      -0.00000000
Cu       5.44421226       5.44421226      -0.00000000
Ni       7.25894968       7.25894968      -0.00000000
Ni       9.07368710       9.07368710      -0.00000000
Ni      10.88842452      10.88842452      -0.00000000
Ni      12.70316195      12.70316195      -0.00000000
8
Lattice="1.8147374208134635 3.629474841626927 1.8147374208134635 5.444212262440391 3.629474841626927 1.8147374208134635 14.517899366507708 14.517899366507708 -4.773048300398239e-18" Properties=species:S:1:pos:R:3 mixing_energy=0.024867354965531607 energy=-35.00604902496412 pbc="T T T"
Cu       0.00000000       0.00000000       0.00000000
Cu       1.81473742       1.81473742      -0.00000000
Cu       3.62947484       3.62947484      -0.00000000
Ni       5.44421226       5.44421226      -0.00000000
Cu       7.25894968       7.25894968      -0.00000000
Cu       9.07368710       9.07368710      -0.00000000
Ni      10.88842452      10.88842452      -0.00000000
Ni      12.70316195      12.70316195      -0.00000000
8
Lattice="1.8147374208134635 3.629474841626927 1.8147374208134635 5.444212262440391 3.629474841626927 1.8147374208134635 14.517899366507708 14.517899366507708 -4.773048300398239e-18" Properties=species:S:1:pos:R:3 mixing_energy=0.026039726597390622 energy=-34.99667005190925 pbc="T T T"
Cu       0.00000000       0.00000000       0.00000000
Cu       1.81473742       1.81473742      -0.00000000
Cu       3.62947484       3.62947484      -0.00000000
Ni       5.44421226       5.44421226      -0.00000000
Cu       7.25894968       7.25894968      -0.00000000
Ni       9.07368710       9.07368710      -0.00000000
Cu      10.88842452      10.88842452      -0.00000000
Ni      12.70316195      12.70316195      -0.00000000
8
Lattice="1.8147374208134635 3.629474841626927 1.8147374208134635 5.444212262440391 3.629474841626927 1.8147374208134635 14.517899366507708 14.517899366507708 -4.773048300398239e-18" Properties=species:S:1:pos:R:3 mixing_energy=0.029658840916482188 energy=-36.71251104300822 pbc="T T T"
Cu       0.00000000       0.00000000       0.00000000
Cu       1.81473742       1.81473742      -0.00000000
Cu       3.62947484       3.62947484      -0.00000000
Ni       5.44421226       5.44421226      -0.00000000
Cu       7.25894968       7.25894968      -0.00000000
Ni       9.07368710       9.07368710      -0.00000000
Ni      10.88842452      10.88842452      -0.00000000
Ni      12.70316195      12.70316195      -0.00000000
8
Lattice="1.8147374208134635 3.629474841626927 1.8147374208134635 5.444212262440391 3.629474841626927 1.8147374208134635 14.517899366507708 14.517899366507708 -4.773048300398239e-18" Properties=species:S:1:pos:R:3 mixing_energy=0.03145923538832607 energy=-36.69810788723347 pbc="T T T"
Cu       0.00000000       0.00000000       0.00000000
Cu       1.81473742       1.81473742      -0.00000000
Cu       3.62947484       3.62947484      -0.00000000
Ni       5.44421226       5.44421226      -0.00000000
Ni       7.25894968       7.25894968      -0.00000000
Cu       9.07368710       9.07368710      -0.00000000
Ni      10.88842452      10.88842452      -0.00000000
Ni      12.70316195      12.70316195      -0.00000000
8
Lattice="1.8147374208134635 3.629474841626927 1.8147374208134635 5.444212262440391 3.629474841626927 1.8147374208134635 14.517899366507708 14.517899366507708 -4.773048300398239e-18" Properties=species:S:1:pos:R:3 mixing_energy=0.026830962899877076 energy=-38.479927972792765 pbc="T T T"
Cu       0.00000000       0.00000000       0.00000000
Cu       1.81473742       1.81473742      -0.00000000
Cu       3.62947484       3.62947484      -0.00000000
Ni       5.44421226       5.44421226      -0.00000000
Ni       7.25894968       7.25894968      -0.00000000
Ni       9.07368710       9.07368710      -0.00000000
Ni      10.88842452      10.88842452      -0.00000000
Ni      12.70316195      12.70316195      -0.00000000
8
Lattice="1.8147374208134635 3.629474841626927 1.8147374208134635 5.444212262440391 3.629474841626927 1.8147374208134635 14.517899366507708 14.517899366507708 -4.773048300398239e-18" Properties=species:S:1:pos:R:3 mixing_energy=0.025708419167180363 energy=-34.99932051135093 pbc="T T T"
Cu       0.00000000       0.00000000       0.00000000
Cu       1.81473742       1.81473742      -0.00000000
Ni       3.62947484       3.62947484      -0.00000000
Cu       5.44421226       5.44421226      -0.00000000
Cu       7.25894968       7.25894968      -0.00000000
Ni       9.07368710       9.07368710      -0.00000000
Cu      10.88842452      10.88842452      -0.00000000
Ni      12.70316195      12.70316195      -0.00000000
8
Lattice="1.8147374208134635 3.629474841626927 1.8147374208134635 5.444212262440391 3.629474841626927 1.8147374208134635 14.517899366507708 14.517899366507708 -4.773048300398239e-18" Properties=species:S:1:pos:R:3 mixing_energy=0.031957745398823345 energy=-36.69411980714949 pbc="T T T"
Cu       0.00000000       0.00000000       0.00000000
Cu       1.81473742       1.81473742      -0.00000000
Ni       3.62947484       3.62947484      -0.00000000
Cu       5.44421226       5.44421226      -0.00000000
Cu       7.25894968       7.25894968      -0.00000000
Ni       9.07368710       9.07368710      -0.00000000
Ni      10.88842452      10.88842452      -0.00000000
Ni      12.70316195      12.70316195      -0.00000000
8
Lattice="1.8147374208134635 3.629474841626927 1.8147374208134635 5.444212262440391 3.629474841626927 1.8147374208134635 14.517899366507708 14.517899366507708 -4.773048300398239e-18" Properties=species:S:1:pos:R:3 mixing_energy=0.03499398249961727 energy=-36.66982991034314 pbc="T T T"
Cu       0.00000000       0.00000000       0.00000000
Cu       1.81473742       1.81473742      -0.00000000
Ni       3.62947484       3.62947484      -0.00000000
Cu       5.44421226       5.44421226      -0.00000000
Ni       7.25894968       7.25894968      -0.00000000
Cu       9.07368710       9.07368710      -0.00000000
Ni      10.88842452      10.88842452      -0.00000000
Ni      12.70316195      12.70316195      -0.00000000
8
Lattice="1.8147374208134635 3.629474841626927 1.8147374208134635 5.444212262440391 3.629474841626927 1.8147374208134635 14.517899366507708 14.517899366507708 -4.773048300398239e-18" Properties=species:S:1:pos:R:3 mixing_energy=0.03259211104315307 energy=-36.68904488199485 pbc="T T T"
Cu       0.00000000       0.00000000       0.00000000
Cu       1.81473742       1.81473742      -0.00000000
Ni       3.62947484       3.62947484      -0.00000000
Cu       5.44421226       5.44421226      -0.00000000
Ni       7.25894968       7.25894968      -0.00000000
Ni       9.07368710       9.07368710      -0.00000000
Cu      10.88842452      10.88842452      -0.00000000
Ni      12.70316195      12.70316195      -0.00000000
8
Lattice="1.8147374208134635 3.629474841626927 1.8147374208134635 5.444212262440391 3.629474841626927 1.8147374208134635 14.517899366507708 14.517899366507708 -4.773048300398239e-18" Properties=species:S:1:pos:R:3 mixing_energy=0.03336702767367905 energy=-38.42763945460235 pbc="T T T"
Cu       0.00000000       0.00000000       0.00000000
Cu       1.81473742       1.81473742      -0.00000000
Ni       3.62947484       3.62947484      -0.00000000
Cu       5.44421226       5.44421226      -0.00000000
Ni       7.25894968       7.25894968      -0.00000000
Ni       9.07368710       9.07368710      -0.00000000
Ni      10.88842452      10.88842452      -0.00000000
Ni      12.70316195      12.70316195      -0.00000000
8
Lattice="1.8147374208134635 3.629474841626927 1.8147374208134635 5.444212262440391 3.629474841626927 1.8147374208134635 14.517899366507708 14.517899366507708 -4.773048300398239e-18" Properties=species:S:1:pos:R:3 mixing_energy=0.03819621558228148 energy=-38.38900595133353 pbc="T T T"
Cu       0.00000000       0.00000000       0.00000000
Cu       1.81473742       1.81473742      -0.00000000
Ni       3.62947484       3.62947484      -0.00000000
Ni       5.44421226       5.44421226      -0.00000000
Cu       7.25894968       7.25894968      -0.00000000
Ni       9.07368710       9.07368710      -0.00000000
Ni      10.88842452      10.88842452      -0.00000000
Ni      12.70316195      12.70316195      -0.00000000
8
Lattice="1.8147374208134635 3.629474841626927 1.8147374208134635 5.444212262440391 3.629474841626927 1.8147374208134635 14.517899366507708 14.517899366507708 -4.773048300398239e-18" Properties=species:S:1:pos:R:3 mixing_energy=0.028832230943142356 energy=-40.208711734098344 pbc="T T T"
Cu       0.00000000       0.00000000       0.00000000
Cu       1.81473742       1.81473742      -0.00000000
Ni       3.62947484       3.62947484      -0.00000000
Ni       5.44421226       5.44421226      -0.00000000
Ni       7.25894968       7.25894968      -0.00000000
Ni       9.07368710       9.07368710      -0.00000000
Ni      10.88842452      10.88842452      -0.00000000
Ni      12.70316195      12.70316195      -0.00000000
8
Lattice="1.8147374208134635 3.629474841626927 1.8147374208134635 5.444212262440391 3.629474841626927 1.8147374208134635 14.517899366507708 14.517899366507708 -4.773048300398239e-18" Properties=species:S:1:pos:R:3 mixing_energy=0.038851461166823587 energy=-38.38376398665719 pbc="T T T"
Cu       0.00000000       0.00000000       0.00000000
Ni       1.81473742       1.81473742      -0.00000000
Cu       3.62947484       3.62947484      -0.00000000
Ni       5.44421226       5.44421226      -0.00000000
Cu       7.25894968       7.25894968      -0.00000000
Ni       9.07368710       9.07368710      -0.00000000
Ni      10.88842452      10.88842452      -0.00000000
Ni      12.70316195      12.70316195      -0.00000000
8
Lattice="1.8147374208134635 3.629474841626927 1.8147374208134635 5.444212262440391 3.629474841626927 1.8147374208134635 14.517899366507708 14.517899366507708 -4.773048300398239e-18" Properties=species:S:1:pos:R:3 mixing_energy=0.038557134291192785 energy=-38.38611860166224 pbc="T T T"
Cu       0.00000000       0.00000000       0.00000000
Ni       1.81473742       1.81473742      -0.00000000
Cu       3.62947484       3.62947484      -0.00000000
Ni       5.44421226       5.44421226      -0.00000000
Ni       7.25894968       7.25894968      -0.00000000
Cu       9.07368710       9.07368710      -0.00000000
Ni      10.88842452      10.88842452      -0.00000000
Ni      12.70316195      12.70316195      -0.00000000
8
Lattice="1.8147374208134635 3.629474841626927 1.8147374208134635 5.444212262440391 3.629474841626927 1.8147374208134635 14.517899366507708 14.517899366507708 -4.773048300398239e-18" Properties=species:S:1:pos:R:3 mixing_energy=0.031524672040663226 energy=-40.18717220531818 pbc="T T T"
Cu       0.00000000       0.00000000       0.00000000
Ni       1.81473742       1.81473742      -0.00000000
Cu       3.62947484       3.62947484      -0.00000000
Ni       5.44421226       5.44421226      -0.00000000
Ni       7.25894968       7.25894968      -0.00000000
Ni       9.07368710       9.07368710      -0.00000000
Ni      10.88842452      10.88842452      -0.00000000
Ni      12.70316195      12.70316195      -0.00000000
8
Lattice="1.8147374208134635 3.629474841626927 1.8147374208134635 5.444212262440391 3.629474841626927 1.8147374208134635 14.517899366507708 14.517899366507708 -4.773048300398239e-18" Properties=species:S:1:pos:R:3 mixing_energy=0.03482940335646223 energy=-40.160734354791785 pbc="T T T"
Cu       0.00000000       0.00000000       0.00000000
Ni       1.81473742       1.81473742      -0.00000000
Ni       3.62947484       3.62947484      -0.00000000
Cu       5.44421226       5.44421226      -0.00000000
Ni       7.25894968       7.25894968      -0.00000000
Ni       9.07368710       9.07368710      -0.00000000
Ni      10.88842452      10.88842452      -0.00000000
Ni      12.70316195      12.70316195      -0.00000000
8
Lattice="1.8147374208134635 3.629474841626927 1.8147374208134635 5.444212262440391 3.629474841626927 1.8147374208134635 14.517899366507708 14.517899366507708 -4.773048300398239e-18" Properties=species:S:1:pos:R:3 mixing_energy=0.02120900546244897 energy=-42.0144914435956 pbc="T T T"
Cu       0.00000000       0.00000000       0.00000000
Ni       1.81473742       1.81473742      -0.00000000
Ni       3.62947484       3.62947484      -0.00000000
Ni       5.44421226       5.44421226      -0.00000000
Ni       7.25894968       7.25894968      -0.00000000
Ni       9.07368710       9.07368710      -0.00000000
Ni      10.88842452      10.88842452      -0.00000000
Ni      12.70316195      12.70316195      -0.00000000
8
Lattice="1.8147374208134635 3.629474841626927 1.8147374208134635 7.258949683253854 5.444212262440391 1.8147374208134635 14.517899366507708 14.517899366507708 -4.773048300398239e-18" Properties=species:S:1:pos:R:3 mixing_energy=0.0038235678897605707 energy=-31.684811510266883 pbc="T T T"
Cu       0.00000000       0.00000000       0.00000000
Cu       1.81473742       1.81473742      -0.00000000
Cu       3.62947484       3.62947484      -0.00000000
Cu       5.44421226       5.44421226      -0.00000000
Cu       7.25894968       7.25894968      -0.00000000
Cu       9.07368710       9.07368710      -0.00000000
Cu      10.88842452      10.88842452      -0.00000000
Ni      12.70316195      12.70316195      -0.00000000
8
Lattice="1.8147374208134635 3.629474841626927 1.8147374208134635 7.258949683253854 5.444212262440391 1.8147374208134635 14.517899366507708 14.517899366507708 -4.773048300398239e-18" Properties=species:S:1:pos:R:3 mixing_energy=0.011076973812666813 energy=-33.371578168535336 pbc="T T T"
Cu       0.00000000       0.00000000       0.00000000
Cu       1.81473742       1.81473742      -0.00000000
Cu       3.62947484       3.62947484      -0.00000000
Cu       5.44421226       5.44421226      -0.00000000
Cu       7.25894968       7.25894968      -0.00000000
Cu       9.07368710       9.07368710      -0.00000000
Ni      10.88842452      10.88842452      -0.00000000
Ni      12.70316195      12.70316195      -0.00000000
8
Lattice="1.8147374208134635 3.629474841626927 1.8147374208134635 7.258949683253854 5.444212262440391 1.8147374208134635 14.517899366507708 14.517899366507708 -4.773048300398239e-18" Properties=species:S:1:pos:R:3 mixing_energy=0.010955221873203191 energy=-33.372552184051045 pbc="T T T"
Cu       0.00000000       0.00000000       0.00000000
Cu       1.81473742       1.81473742      -0.00000000
Cu       3.62947484       3.62947484      -0.00000000
Cu       5.44421226       5.44421226      -0.00000000
Cu       7.25894968       7.25894968      -0.00000000
Ni       9.07368710       9.07368710      -0.00000000
Cu      10.88842452      10.88842452      -0.00000000
Ni      12.70316195      12.70316195      -0.00000000
8
Lattice="1.8147374208134635 3.629474841626927 1.8147374208134635 7.258949683253854 5.444212262440391 1.8147374208134635 14.517899366507708 14.517899366507708 -4.773048300398239e-18" Properties=species:S:1:pos:R:3 mixing_energy=0.019777140523669967 energy=-35.046770740499014 pbc="T T T"
Cu       0.00000000       0.00000000       0.00000000
Cu       1.81473742       1.81473742      -0.00000000
Cu       3.62947484       3.62947484      -0.00000000
Cu       5.44421226       5.44421226      -0.00000000
Cu       7.25894968       7.25894968      -0.00000000
Ni       9.07368710       9.07368710      -0.00000000
Ni      10.88842452      10.88842452      -0.00000000
Ni      12.70316195      12.70316195      -0.00000000
8
Lattice="1.8147374208134635 3.629474841626927 1.8147374208134635 7.258949683253854 5.444212262440391 1.8147374208134635 14.517899366507708 14.517899366507708 -4.773048300398239e-18" Properties=species:S:1:pos:R:3 mixing_energy=0.013595149402520823 energy=-33.351432763816504 pbc="T T T"
Cu       0.00000000       0.00000000       0.00000000
Cu       1.81473742       1.81473742      -0.00000000
Cu       3.62947484       3.62947484      -0.00000000
Cu       5.44421226       5.44421226      -0.00000000
Ni       7.25894968       7.25894968      -0.00000000
Cu       9.07368710       9.07368710      -0.00000000
Cu      10.88842452      10.88842452      -0.00000000
Ni      12.70316195      12.70316195      -0.00000000
8
Lattice="1.8147374208134635 3.629474841626927 1.8147374208134635 7.258949683253854 5.444212262440391 1.8147374208134635 14.517899366507708 14.517899366507708 -4.773048300398239e-18" Properties=species:S:1:pos:R:3 mixing_energy=0.02181597115660283 energy=-35.03046009543555 pbc="T T T"
Cu       0.00000000       0.00000000       0.00000000
Cu       1.81473742       1.81473742      -0.00000000
Cu       3.62947484       3.62947484      -0.00000000
Cu       5.44421226       5.44421226      -0.00000000
Ni       7.25894968       7.25894968      -0.00000000
Cu       9.07368710       9.07368710      -0.00000000
Ni      10.88842452      10.88842452      -0.00000000
Ni      12.70316195      12.70316195      -0.00000000
8
Lattice="1.8147374208134635 3.629474841626927 1.8147374208134635 7.258949683253854 5.444212262440391 1.8147374208134635 14.517899366507708 14.517899366507708 -4.773048300398239e-18" Properties=species:S:1:pos:R:3 mixing_energy=0.028287581925311667 energy=-36.723481114937584 pbc="T T T"
Cu       0.00000000       0.00000000       0.00000000
Cu       1.81473742       1.81473742      -0.00000000
Cu       3.62947484       3.62947484      -0.00000000
Cu       5.44421226       5.44421226      -0.00000000
Ni       7.25894968       7.25894968      -0.00000000
Ni       9.07368710       9.07368710      -0.00000000
Ni      10.88842452      10.88842452      -0.00000000
Ni      12.70316195      12.70316195      -0.00000000
8
Lattice="1.8147374208134635 3.629474841626927 1.8147374208134635 7.258949683253854 5.444212262440391 1.8147374208134635 14.517899366507708 14.517899366507708 -4.773048300398239e-18" Properties=species:S:1:pos:R:3 mixing_energy=0.022511916765477036 energy=-35.02489253056456 pbc="T T T"
Cu       0.00000000       0.00000000       0.00000000
Cu       1.81473742       1.81473742      -0.00000000
Cu       3.62947484       3.62947484      -0.00000000
Ni       5.44421226       5.44421226      -0.00000000
Cu       7.25894968       7.25894968      -0.00000000
Cu       9.07368710       9.07368710      -0.00000000
Ni      10.88842452      10.88842452      -0.00000000
Ni      12.70316195      12.70316195      -0.00000000
8
Lattice="1.8147374208134635 3.629474841626927 1.8147374208134635 7.258949683253854 5.444212262440391 1.8147374208134635 14.517899366507708 14.517899366507708 -4.773048300398239e-18" Properties=species:S:1:pos:R:3 mixing_energy=0.018408774734868683 energy=-35.057717666809424 pbc="T T T"
Cu       0.00000000       0.00000000       0.00000000
Cu       1.81473742       1.81473742      -0.00000000
Cu       3.62947484       3.62947484      -0.00000000
Ni       5.44421226       5.44421226      -0.00000000
Cu       7.25894968       7.25894968      -0.00000000
Ni       9.07368710       9.07368710      -0.00000000
Cu      10.88842452      10.88842452      -0.00000000
Ni      12.70316195      12.70316195      -0.00000000
8
Lattice="1.8147374208134635 3.629474841626927 1.8147374208134635 7.258949683253854 5.444212262440391 1.8147374208134635 14.517899366507708 14.517899366507708 -4.773048300398239e-18" Properties=species:S:1:pos:R:3 mixing_energy=0.028063835498272294 energy=-36.7252710863539 pbc="T T T"
Cu       0.00000000       0.00000000       0.00000000
Cu       1.81473742       1.81473742      -0.00000000
Cu       3.62947484       3.62947484      -0.00000000
Ni       5.44421226       5.44421226      -0.00000000
Cu       7.25894968       7.25894968      -0.00000000
Ni       9.07368710       9.07368710      -0.00000000
Ni      10.88842452      10.88842452      -0.00000000
Ni      12.70316195      12.70316195      -0.00000000
8
Lattice="1.8147374208134635 3.629474841626927 1.8147374208134635 7.258949683253854 5.444212262440391 1.8147374208134635 14.517899366507708 14.517899366507708 -4.773048300398239e-18" Properties=species:S:1:pos:R:3 mixing_energy=0.031154313300764347 energy=-36.70054726393396 pbc="T T T"
Cu       0.00000000       0.00000000       0.00000000
Cu       1.81473742       1.81473742      -0.00000000
Cu       3.62947484       3.62947484      -0.00000000
Ni       5.44421226       5.44421226      -0.00000000
Ni       7.25894968       7.25894968      -0.00000000
Cu       9.07368710       9.07368710      -0.00000000
Ni      10.88842452      10.88842452      -0.00000000
Ni      12.70316195      12.70316195      -0.00000000
8
Lattice="1.8147374208134635 3.629474841626927 1.8147374208134635 7.258949683253854 5.444212262440391 1.8147374208134635 14.517899366507708 14.517899366507708 -4.773048300398239e-18" Properties=species:S:1:pos:R:3 mixing_energy=0.03179613805370041 energy=-38.44020657156218 pbc="T T T"
Cu       0.00000000       0.00000000       0.00000000
Cu       1.81473742       1.81473742      -0.00000000
Cu       3.62947484       3.62947484      -0.00000000
Ni       5.44421226       5.44421226      -0.00000000
Ni       7.25894968       7.25894968      -0.00000000
Ni       9.07368710       9.07368710      -0.00000000
Ni      10.88842452      10.88842452      -0.00000000
Ni      12.70316195      12.70316195      -0.00000000
8
Lattice="1.8147374208134635 3.629474841626927 1.8147374208134635 7.258949683253854 5.444212262440391 1.8147374208134635 14.517899366507708 14.517899366507708 -4.773048300398239e-18" Properties=species:S:1:pos:R:3 mixing_energy=0.025320951032791417 energy=-35.00242025642604 pbc="T T T"
Cu       0.00000000       0.00000000       0.00000000
Cu       1.81473742       1.81473742      -0.00000000
Ni       3.62947484       3.62947484      -0.00000000
Cu       5.44421226       5.44421226      -0.00000000
Cu       7.25894968       7.25894968      -0.00000000
Ni       9.07368710       9.07368710      -0.00000000
Cu      10.88842452      10.88842452      -0.00000000
Ni      12.70316195      12.70316195      -0.00000000
8
Lattice="1.8147374208134635 3.629474841626927 1.8147374208134635 7.258949683253854 5.444212262440391 1.8147374208134635 14.517899366507708 14.517899366507708 -4.773048300398239e-18" Properties=species:S:1:pos:R:3 mixing_energy=0.032478025867081595 energy=-36.689957563403425 pbc="T T T"
Cu       0.00000000       0.00000000       0.00000000
Cu       1.81473742       1.81473742      -0.00000000
Ni       3.62947484       3.62947484      -0.00000000
Cu       5.44421226       5.44421226      -0.00000000
Cu       7.25894968       7.25894968      -0.00000000
Ni       9.07368710       9.07368710      -0.00000000
Ni      10.88842452      10.88842452      -0.00000000
Ni      12.70316195      12.70316195      -0.00000000
8
Lattice="1.8147374208134635 3.629474841626927 1.8147374208134635 7.258949683253854 5.444212262440391 1.8147374208134635 14.517899366507708 14.517899366507708 -4.773048300398239e-18" Properties=species:S:1:pos:R:3 mixing_energy=0.030583193169700262 energy=-36.705116224982476 pbc="T T T"
Cu       0.00000000       0.00000000       0.00000000
Cu       1.81473742       1.81473742      -0.00000000
Ni       3.62947484       3.62947484      -0.00000000
Cu       5.44421226       5.44421226      -0.00000000
Ni       7.25894968       7.25894968      -0.00000000
Cu       9.07368710       9.07368710      -0.00000000
Ni      10.88842452      10.88842452      -0.00000000
Ni      12.70316195      12.70316195      -0.00000000
8
Lattice="1.8147374208134635 3.629474841626927 1.8147374208134635 7.258949683253854 5.444212262440391 1.8147374208134635 14.517899366507708 14.517899366507708 -4.773048300398239e-18" Properties=species:S:1:pos:R:3 mixing_energy=0.03461804670983204 energy=-36.67283739666142 pbc="T T T"
Cu       0.00000000       0.00000000       0.00000000
Cu       1.81473742       1.81473742      -0.00000000
Ni       3.62947484       3.62947484      -0.00000000
Cu       5.44421226       5.44421226      -0.00000000
Ni       7.25894968       7.25894968      -0.00000000
Ni       9.07368710       9.07368710      -0.00000000
Cu      10.88842452      10.88842452      -0.00000000
Ni      12.70316195      12.70316195      -0.00000000
8
Lattice="1.8147374208134635 3.629474841626927 1.8147374208134635 7.258949683253854 5.444212262440391 1.8147374208134635 14.517899366507708 14.517899366507708 -4.773048300398239e-18" Properties=species:S:1:pos:R:3 mixing_energy=0.03547196996657975 energy=-38.410799916259144 pbc="T T T"
Cu       0.00000000       0.00000000       0.00000000
Cu       1.81473742       1.81473742      -0.00000000
Ni       3.62947484       3.62947484      -0.00000000
Cu       5.44421226       5.44421226      -0.00000000
Ni       7.25894968       7.25894968      -0.00000000
Ni       9.07368710       9.07368710      -0.00000000
Ni      10.88842452      10.88842452      -0.00000000
Ni      12.70316195      12.70316195      -0.00000000
8
Lattice="1.8147374208134635 3.629474841626927 1.8147374208134635 7.258949683253854 5.444212262440391 1.8147374208134635 14.517899366507708 14.517899366507708 -4.773048300398239e-18" Properties=species:S:1:pos:R:3 mixing_energy=0.03487754106011254 energy=-38.41555534751088 pbc="T T T"
Cu       0.00000000       0.00000000       0.00000000
Cu       1.81473742       1.81473742      -0.00000000
Ni       3.62947484       3.62947484      -0.00000000
Ni       5.44421226       5.44421226      -0.00000000
Cu       7.25894968       7.25894968      -0.00000000
Ni       9.07368710       9.07368710      -0.00000000
Ni      10.88842452      10.88842452      -0.00000000
Ni      12.70316195      12.70316195      -0.00000000
8
Lattice="1.8147374208134635 3.629474841626927 1.8147374208134635 7.258949683253854 5.444212262440391 1.8147374208134635 14.517899366507708 14.517899366507708 -4.773048300398239e-18" Properties=species:S:1:pos:R:3 mixing_energy=0.03127909156682218 energy=-40.189136849108905 pbc="T T T"
Cu       0.00000000       0.00000000       0.00000000
Cu       1.81473742       1.81473742      -0.00000000
Ni       3.62947484       3.62947484      -0.00000000
Ni       5.44421226       5.44421226      -0.00000000
Ni       7.25894968       7.25894968      -0.00000000
Ni       9.07368710       9.07368710      -0.00000000
Ni      10.88842452      10.88842452      -0.00000000
Ni      12.70316195      12.70316195      -0.00000000
8
Lattice="1.8147374208134635 3.629474841626927 1.8147374208134635 7.258949683253854 5.444212262440391 1.8147374208134635 14.517899366507708 14.517899366507708 -4.773048300398239e-18" Properties=species:S:1:pos:R:3 mixing_energy=0.02961786771915742 energy=-38.45763273423852 pbc="T T T"
Cu       0.00000000       0.00000000       0.00000000
Ni       1.81473742       1.81473742      -0.00000000
Cu       3.62947484       3.62947484      -0.00000000
Ni       5.44421226       5.44421226      -0.00000000
Cu       7.25894968       7.25894968      -0.00000000
Ni       9.07368710       9.07368710      -0.00000000
Ni      10.88842452      10.88842452      -0.00000000
Ni      12.70316195      12.70316195      -0.00000000
8
Lattice="1.8147374208134635 3.629474841626927 1.8147374208134635 7.258949683253854 5.444212262440391 1.8147374208134635 14.517899366507708 14.517899366507708 -4.773048300398239e-18" Properties=species:S:1:pos:R:3 mixing_energy=0.037913485587215856 energy=-38.391267791294055 pbc="T T T"
Cu       0.00000000       0.00000000       0.00000000
Ni       1.81473742       1.81473742      -0.00000000
Cu       3.62947484       3.62947484      -0.00000000
Ni       5.44421226       5.44421226      -0.00000000
Ni       7.25894968       7.25894968      -0.00000000
Cu       9.07368710       9.07368710      -0.00000000
Ni      10.88842452      10.88842452      -0.00000000
Ni      12.70316195      12.70316195      -0.00000000
8
Lattice="1.8147374208134635 3.629474841626927 1.8147374208134635 7.258949683253854 5.444212262440391 1.8147374208134635 14.517899366507708 14.517899366507708 -4.773048300398239e-18" Properties=species:S:1:pos:R:3 mixing_energy=0.029905625249102563 energy=-40.20012457965066 pbc="T T T"
Cu       0.00000000       0.00000000       0.00000000
Ni       1.81473742       1.81473742      -0.00000000
Cu       3.62947484       3.62947484      -0.00000000
Ni       5.44421226       5.44421226      -0.00000000
Ni       7.25894968       7.25894968      -0.00000000
Ni       9.07368710       9.07368710      -0.00000000
Ni      10.88842452      10.88842452      -0.00000000
Ni      12.70316195      12.70316195      -0.00000000
8
Lattice="1.8147374208134635 3.629474841626927 1.8147374208134635 7.258949683253854 5.444212262440391 1.8147374208134635 14.517899366507708 14.517899366507708 -4.773048300398239e-18" Properties=species:S:1:pos:R:3 mixing_energy=0.03446860735829205 energy=-40.16362072277715 pbc="T T T"
Cu       0.00000000       0.00000000       0.00000000
Ni       1.81473742       1.81473742      -0.00000000
Ni       3.62947484       3.62947484      -0.00000000
Cu       5.44421226       5.44421226      -0.00000000
Ni       7.25894968       7.25894968      -0.00000000
Ni       9.07368710       9.07368710      -0.00000000
Ni      10.88842452      10.88842452      -0.00000000
Ni      12.70316195      12.70316195      -0.00000000
8
Lattice="1.8147374208134635 3.629474841626927 1.8147374208134635 7.258949683253854 5.444212262440391 1.8147374208134635 14.517899366507708 14.517899366507708 -4.773048300398239e-18" Properties=species:S:1:pos:R:3 mixing_energy=0.020509628021462945 energy=-42.020086463123484 pbc="T T T"
Cu       0.00000000       0.00000000       0.00000000
Ni       1.81473742       1.81473742      -0.00000000
Ni       3.62947484       3.62947484      -0.00000000
Ni       5.44421226       5.44421226      -0.00000000
Ni       7.25894968       7.25894968      -0.00000000
Ni       9.07368710       9.07368710      -0.00000000
Ni      10.88842452      10.88842452      -0.00000000
Ni      12.70316195      12.70316195      -0.00000000
8
Lattice="1.8147374208134635 3.629474841626927 1.8147374208134635 9.073687104067318 7.258949683253854 1.8147374208134635 14.517899366507708 14.517899366507708 -4.773048300398239e-18" Properties=species:S:1:pos:R:3 mixing_energy=0.003575081042570427 energy=-31.686799405044404 pbc="T T T"
Cu       0.00000000       0.00000000       0.00000000
Cu       1.81473742       1.81473742       0.00000000
Cu       3.62947484       3.62947484       0.00000000
Cu       5.44421226       5.44421226       0.00000000
Cu       7.25894968       7.25894968       0.00000000
Cu       9.07368710       9.07368710       0.00000000
Cu      10.88842452      10.88842452       0.00000000
Ni      12.70316195      12.70316195       0.00000000
8
Lattice="1.8147374208134635 3.629474841626927 1.8147374208134635 9.073687104067318 7.258949683253854 1.8147374208134635 14.517899366507708 14.517899366507708 -4.773048300398239e-18" Properties=species:S:1:pos:R:3 mixing_energy=0.011504715363902518 energy=-33.36815623612545 pbc="T T T"
Cu       0.00000000       0.00000000       0.00000000
Cu       1.81473742       1.81473742       0.00000000
Cu       3.62947484       3.62947484       0.00000000
Cu       5.44421226       5.44421226       0.00000000
Cu       7.25894968       7.25894968       0.00000000
Cu       9.07368710       9.07368710       0.00000000
Ni      10.88842452      10.88842452       0.00000000
Ni      12.70316195      12.70316195       0.00000000
8
Lattice="1.8147374208134635 3.629474841626927 1.8147374208134635 9.073687104067318 7.258949683253854 1.8147374208134635 14.517899366507708 14.517899366507708 -4.773048300398239e-18" Properties=species:S:1:pos:R:3 mixing_energy=0.012621987933758794 energy=-33.3592180555666 pbc="T T T"
Cu       0.00000000       0.00000000       0.00000000
Cu       1.81473742       1.81473742       0.00000000
Cu       3.62947484       3.62947484       0.00000000
Cu       5.44421226       5.44421226       0.00000000
Cu       7.25894968       7.25894968       0.00000000
Ni       9.07368710       9.07368710       0.00000000
Cu      10.88842452      10.88842452       0.00000000
Ni      12.70316195      12.70316195       0.00000000
8
Lattice="1.8147374208134635 3.629474841626927 1.8147374208134635 9.073687104067318 7.258949683253854 1.8147374208134635 14.517899366507708 14.517899366507708 -4.773048300398239e-18" Properties=species:S:1:pos:R:3 mixing_energy=0.022341881960243004 energy=-35.02625280900643 pbc="T T T"
Cu       0.00000000       0.00000000       0.00000000
Cu       1.81473742       1.81473742       0.00000000
Cu       3.62947484       3.62947484       0.00000000
Cu       5.44421226       5.44421226       0.00000000
Cu       7.25894968       7.25894968       0.00000000
Ni       9.07368710       9.07368710       0.00000000
Ni      10.88842452      10.88842452       0.00000000
Ni      12.70316195      12.70316195       0.00000000
8
Lattice="1.8147374208134635 3.629474841626927 1.8147374208134635 9.073687104067318 7.258949683253854 1.8147374208134635 14.517899366507708 14.517899366507708 -4.773048300398239e-18" Properties=species:S:1:pos:R:3 mixing_energy=0.022493924744809934 energy=-35.025036466729894 pbc="T T T"
Cu       0.00000000       0.00000000       0.00000000
Cu       1.81473742       1.81473742       0.00000000
Cu       3.62947484       3.62947484       0.00000000
Cu       5.44421226       5.44421226       0.00000000
Ni       7.25894968       7.25894968       0.00000000
Cu       9.07368710       9.07368710       0.00000000
Ni      10.88842452      10.88842452       0.00000000
Ni      12.70316195      12.70316195       0.00000000
8
Lattice="1.8147374208134635 3.629474841626927 1.8147374208134635 9.073687104067318 7.258949683253854 1.8147374208134635 14.517899366507708 14.517899366507708 -4.773048300398239e-18" Properties=species:S:1:pos:R:3 mixing_energy=0.031459172638730326 energy=-36.698108389230235 pbc="T T T"
Cu       0.00000000       0.00000000       0.00000000
Cu       1.81473742       1.81473742       0.00000000
Cu       3.62947484       3.62947484       0.00000000
Cu       5.44421226       5.44421226       0.00000000
Ni       7.25894968       7.25894968       0.00000000
Ni       9.07368710       9.07368710       0.00000000
Ni      10.88842452      10.88842452       0.00000000
Ni      12.70316195      12.70316195       0.00000000
8
Lattice="1.8147374208134635 3.629474841626927 1.8147374208134635 9.073687104067318 7.258949683253854 1.8147374208134635 14.517899366507708 14.517899366507708 -4.773048300398239e-18" Properties=species:S:1:pos:R:3 mixing_energy=0.020540243583263784 energy=-35.04066591602226 pbc="T T T"
Cu       0.00000000       0.00000000       0.00000000
Cu       1.81473742       1.81473742       0.00000000
Cu       3.62947484       3.62947484       0.00000000
Ni       5.44421226       5.44421226       0.00000000
Cu       7.25894968       7.25894968       0.00000000
Cu       9.07368710       9.07368710       0.00000000
Ni      10.88842452      10.88842452       0.00000000
Ni      12.70316195      12.70316195       0.00000000
8
Lattice="1.8147374208134635 3.629474841626927 1.8147374208134635 9.073687104067318 7.258949683253854 1.8147374208134635 14.517899366507708 14.517899366507708 -4.773048300398239e-18" Properties=species:S:1:pos:R:3 mixing_energy=0.025240365291038014 energy=-35.00306494236007 pbc="T T T"
Cu       0.00000000       0.00000000       0.00000000
Cu       1.81473742       1.81473742       0.00000000
Cu       3.62947484       3.62947484       0.00000000
Ni       5.44421226       5.44421226       0.00000000
Cu       7.25894968       7.25894968       0.00000000
Ni       9.07368710       9.07368710       0.00000000
Cu      10.88842452      10.88842452       0.00000000
Ni      12.70316195      12.70316195       0.00000000
8
Lattice="1.8147374208134635 3.629474841626927 1.8147374208134635 9.073687104067318 7.258949683253854 1.8147374208134635 14.517899366507708 14.517899366507708 -4.773048300398239e-18" Properties=species:S:1:pos:R:3 mixing_energy=0.03203621298102588 energy=-36.69349206649187 pbc="T T T"
Cu       0.00000000       0.00000000       0.00000000
Cu       1.81473742       1.81473742       0.00000000
Cu       3.62947484       3.62947484       0.00000000
Ni       5.44421226       5.44421226       0.00000000
Cu       7.25894968       7.25894968       0.00000000
Ni       9.07368710       9.07368710       0.00000000
Ni      10.88842452      10.88842452       0.00000000
Ni      12.70316195      12.70316195       0.00000000
8
Lattice="1.8147374208134635 3.629474841626927 1.8147374208134635 9.073687104067318 7.258949683253854 1.8147374208134635 14.517899366507708 14.517899366507708 -4.773048300398239e-18" Properties=species:S:1:pos:R:3 mixing_energy=0.029330002343637585 energy=-36.71514175159098 pbc="T T T"
Cu       0.00000000       0.00000000       0.00000000
Cu       1.81473742       1.81473742       0.00000000
Cu       3.62947484       3.62947484       0.00000000
Ni       5.44421226       5.44421226       0.00000000
Ni       7.25894968       7.25894968       0.00000000
Cu       9.07368710       9.07368710       0.00000000
Ni      10.88842452      10.88842452       0.00000000
Ni      12.70316195      12.70316195       0.00000000
8
Lattice="1.8147374208134635 3.629474841626927 1.8147374208134635 9.073687104067318 7.258949683253854 1.8147374208134635 14.517899366507708 14.517899366507708 -4.773048300398239e-18" Properties=species:S:1:pos:R:3 mixing_energy=0.035313321010633114 energy=-38.41206910790672 pbc="T T T"
Cu       0.00000000       0.00000000       0.00000000
Cu       1.81473742       1.81473742       0.00000000
Cu       3.62947484       3.62947484       0.00000000
Ni       5.44421226       5.44421226       0.00000000
Ni       7.25894968       7.25894968       0.00000000
Ni       9.07368710       9.07368710       0.00000000
Ni      10.88842452      10.88842452       0.00000000
Ni      12.70316195      12.70316195       0.00000000
8
Lattice="1.8147374208134635 3.629474841626927 1.8147374208134635 9.073687104067318 7.258949683253854 1.8147374208134635 14.517899366507708 14.517899366507708 -4.773048300398239e-18" Properties=species:S:1:pos:R:3 mixing_energy=0.029148463786501377 energy=-36.71659406004807 pbc="T T T"
Cu       0.00000000       0.00000000       0.00000000
Cu       1.81473742       1.81473742       0.00000000
Ni       3.62947484       3.62947484       0.00000000
Cu       5.44421226       5.44421226       0.00000000
Cu       7.25894968       7.25894968       0.00000000
Ni       9.07368710       9.07368710       0.00000000
Ni      10.88842452      10.88842452       0.00000000
Ni      12.70316195      12.70316195       0.00000000
8
Lattice="1.8147374208134635 3.629474841626927 1.8147374208134635 9.073687104067318 7.258949683253854 1.8147374208134635 14.517899366507708 14.517899366507708 -4.773048300398239e-18" Properties=species:S:1:pos:R:3 mixing_energy=0.03539940116146534 energy=-38.41138046670006 pbc="T T T"
Cu       0.00000000       0.00000000       0.00000000
Cu       1.81473742       1.81473742       0.00000000
Ni       3.62947484       3.62947484       0.00000000
Cu       5.44421226       5.44421226       0.00000000
Ni       7.25894968       7.25894968       0.00000000
Ni       9.07368710       9.07368710       0.00000000
Ni      10.88842452      10.88842452       0.00000000
Ni      12.70316195      12.70316195       0.00000000
8
Lattice="1.8147374208134635 3.629474841626927 1.8147374208134635 9.073687104067318 7.258949683253854 1.8147374208134635 14.517899366507708 14.517899366507708 -4.773048300398239e-18" Properties=species:S:1:pos:R:3 mixing_energy=0.03255596728379784 energy=-38.4341279377214 pbc="T T T"
Cu       0.00000000       0.00000000       0.00000000
Cu       1.81473742       1.81473742       0.00000000
Ni       3.62947484       3.62947484       0.00000000
Ni       5.44421226       5.44421226       0.00000000
Cu       7.25894968       7.25894968       0.00000000
Ni       9.07368710       9.07368710       0.00000000
Ni      10.88842452      10.88842452       0.00000000
Ni      12.70316195      12.70316195       0.00000000
8
Lattice="1.8147374208134635 3.629474841626927 1.8147374208134635 9.073687104067318 7.258949683253854 1.8147374208134635 14.517899366507708 14.517899366507708 -4.773048300398239e-18" Properties=species:S:1:pos:R:3 mixing_energy=0.03115343186901587 energy=-40.190142126691356 pbc="T T T"
Cu       0.00000000       0.00000000       0.00000000
Cu       1.81473742       1.81473742       0.00000000
Ni       3.62947484       3.62947484       0.00000000
Ni       5.44421226       5.44421226       0.00000000
Ni       7.25894968       7.25894968       0.00000000
Ni       9.07368710       9.07368710       0.00000000
Ni      10.88842452      10.88842452       0.00000000
Ni      12.70316195      12.70316195       0.00000000
8
Lattice="1.8147374208134635 3.629474841626927 1.8147374208134635 9.073687104067318 7.258949683253854 1.8147374208134635 14.517899366507708 14.517899366507708 -4.773048300398239e-18" Properties=species:S:1:pos:R:3 mixing_energy=0.03919523177273243 energy=-38.38101382180992 pbc="T T T"
Cu       0.00000000       0.00000000       0.00000000
Ni       1.81473742       1.81473742       0.00000000
Cu       3.62947484       3.62947484       0.00000000
Ni       5.44421226       5.44421226       0.00000000
Cu       7.25894968       7.25894968       0.00000000
Ni       9.07368710       9.07368710       0.00000000
Ni      10.88842452      10.88842452       0.00000000
Ni      12.70316195      12.70316195       0.00000000
8
Lattice="1.8147374208134635 3.629474841626927 1.8147374208134635 9.073687104067318 7.258949683253854 1.8147374208134635 14.517899366507708 14.517899366507708 -4.773048300398239e-18" Properties=species:S:1:pos:R:3 mixing_energy=0.033997486595825244 energy=-40.16738968887688 pbc="T T T"
Cu       0.00000000       0.00000000       0.00000000
Ni       1.81473742       1.81473742       0.00000000
Cu       3.62947484       3.62947484       0.00000000
Ni       5.44421226       5.44421226       0.00000000
Ni       7.25894968       7.25894968       0.00000000
Ni       9.07368710       9.07368710       0.00000000
Ni      10.88842452      10.88842452       0.00000000
Ni      12.70316195      12.70316195       0.00000000
8
Lattice="1.8147374208134635 3.629474841626927 1.8147374208134635 9.073687104067318 7.258949683253854 1.8147374208134635 14.517899366507708 14.517899366507708 -4.773048300398239e-18" Properties=species:S:1:pos:R:3 mixing_energy=0.020621695673103346 energy=-42.01918992191036 pbc="T T T"
Cu       0.00000000       0.00000000       0.00000000
Ni       1.81473742       1.81473742       0.00000000
Ni       3.62947484       3.62947484       0.00000000
Ni       5.44421226       5.44421226       0.00000000
Ni       7.25894968       7.25894968       0.00000000
Ni       9.07368710       9.07368710       0.00000000
Ni      10.88842452      10.88842452       0.00000000
Ni      12.70316195      12.70316195       0.00000000
8
Lattice="3.629474841626927 5.444212262440391 1.8147374208134635 7.258949683253854 5.444212262440391 1.8147374208134635 14.517899366507708 14.517899366507708 -4.773048300398239e-18" Properties=species:S:1:pos:R:3 mixing_energy=0.003588127400857455 energy=-31.686695034178108 pbc="T T T"
Cu       0.00000000       0.00000000       0.00000000
Cu       1.81473742       1.81473742      -0.00000000
Cu       3.62947484       3.62947484      -0.00000000
Cu       5.44421226       5.44421226      -0.00000000
Cu       7.25894968       7.25894968      -0.00000000
Cu       9.07368710       9.07368710      -0.00000000
Cu      10.88842452      10.88842452      -0.00000000
Ni      12.70316195      12.70316195      -0.00000000
8
Lattice="3.629474841626927 5.444212262440391 1.8147374208134635 7.258949683253854 5.444212262440391 1.8147374208134635 14.517899366507708 14.517899366507708 -4.773048300398239e-18" Properties=species:S:1:pos:R:3 mixing_energy=0.012068585385826003 energy=-33.36364527595006 pbc="T T T"
Cu       0.00000000       0.00000000       0.00000000
Cu       1.81473742       1.81473742      -0.00000000
Cu       3.62947484       3.62947484      -0.00000000
Cu       5.44421226       5.44421226      -0.00000000
Cu       7.25894968       7.25894968      -0.00000000
Cu       9.07368710       9.07368710      -0.00000000
Ni      10.88842452      10.88842452      -0.00000000
Ni      12.70316195      12.70316195      -0.00000000
8
Lattice="3.629474841626927 5.444212262440391 1.8147374208134635 7.258949683253854 5.444212262440391 1.8147374208134635 14.517899366507708 14.517899366507708 -4.773048300398239e-18" Properties=species:S:1:pos:R:3 mixing_energy=0.0122015158889075 energy=-33.36258183192541 pbc="T T T"
Cu       0.00000000       0.00000000       0.00000000
Cu       1.81473742       1.81473742      -0.00000000
Cu       3.62947484       3.62947484      -0.00000000
Cu       5.44421226       5.44421226      -0.00000000
Cu       7.25894968       7.25894968      -0.00000000
Ni       9.07368710       9.07368710      -0.00000000
Cu      10.88842452      10.88842452      -0.00000000
Ni      12.70316195      12.70316195      -0.00000000
8
Lattice="3.629474841626927 5.444212262440391 1.8147374208134635 7.258949683253854 5.444212262440391 1.8147374208134635 14.517899366507708 14.517899366507708 -4.773048300398239e-18" Properties=species:S:1:pos:R:3 mixing_energy=0.023328440486170887 energy=-35.018360340799006 pbc="T T T"
Cu       0.00000000       0.00000000       0.00000000
Cu       1.81473742       1.81473742      -0.00000000
Cu       3.62947484       3.62947484      -0.00000000
Cu       5.44421226       5.44421226      -0.00000000
Cu       7.25894968       7.25894968      -0.00000000
Ni       9.07368710       9.07368710      -0.00000000
Ni      10.88842452      10.88842452      -0.00000000
Ni      12.70316195      12.70316195      -0.00000000
8
Lattice="3.629474841626927 5.444212262440391 1.8147374208134635 7.258949683253854 5.444212262440391 1.8147374208134635 14.517899366507708 14.517899366507708 -4.773048300398239e-18" Properties=species:S:1:pos:R:3 mixing_energy=0.0220516554026422 energy=-35.028574621467236 pbc="T T T"
Cu       0.00000000       0.00000000       0.00000000
Cu       1.81473742       1.81473742      -0.00000000
Cu       3.62947484       3.62947484      -0.00000000
Cu       5.44421226       5.44421226      -0.00000000
Ni       7.25894968       7.25894968      -0.00000000
Cu       9.07368710       9.07368710      -0.00000000
Ni      10.88842452      10.88842452      -0.00000000
Ni      12.70316195      12.70316195      -0.00000000
8
Lattice="3.629474841626927 5.444212262440391 1.8147374208134635 7.258949683253854 5.444212262440391 1.8147374208134635 14.517899366507708 14.517899366507708 -4.773048300398239e-18" Properties=species:S:1:pos:R:3 mixing_energy=0.03140126505112617 energy=-36.69857164993107 pbc="T T T"
Cu       0.00000000       0.00000000       0.00000000
Cu       1.81473742       1.81473742      -0.00000000
Cu       3.62947484       3.62947484      -0.00000000
Cu       5.44421226       5.44421226      -0.00000000
Ni       7.25894968       7.25894968      -0.00000000
Ni       9.07368710       9.07368710      -0.00000000
Ni      10.88842452      10.88842452      -0.00000000
Ni      12.70316195      12.70316195      -0.00000000
8
Lattice="3.629474841626927 5.444212262440391 1.8147374208134635 7.258949683253854 5.444212262440391 1.8147374208134635 14.517899366507708 14.517899366507708 -4.773048300398239e-18" Properties=species:S:1:pos:R:3 mixing_energy=0.021077256145276113 energy=-35.036369815526164 pbc="T T T"
Cu       0.00000000       0.00000000       0.00000000
Cu       1.81473742       1.81473742      -0.00000000
Cu       3.62947484       3.62947484      -0.00000000
Ni       5.44421226       5.44421226      -0.00000000
Cu       7.25894968       7.25894968      -0.00000000
Cu       9.07368710       9.07368710      -0.00000000
Ni      10.88842452      10.88842452      -0.00000000
Ni      12.70316195      12.70316195      -0.00000000
8
Lattice="3.629474841626927 5.444212262440391 1.8147374208134635 7.258949683253854 5.444212262440391 1.8147374208134635 14.517899366507708 14.517899366507708 -4.773048300398239e-18" Properties=species:S:1:pos:R:3 mixing_energy=0.024916901891680165 energy=-35.00565264955493 pbc="T T T"
Cu       0.00000000       0.00000000       0.00000000
Cu       1.81473742       1.81473742      -0.00000000
Cu       3.62947484       3.62947484      -0.00000000
Ni       5.44421226       5.44421226      -0.00000000
Cu       7.25894968       7.25894968      -0.00000000
Ni       9.07368710       9.07368710      -0.00000000
Cu      10.88842452      10.88842452      -0.00000000
Ni      12.70316195      12.70316195      -0.00000000
8
Lattice="3.629474841626927 5.444212262440391 1.8147374208134635 7.258949683253854 5.444212262440391 1.8147374208134635 14.517899366507708 14.517899366507708 -4.773048300398239e-18" Properties=species:S:1:pos:R:3 mixing_energy=0.032385907757541244 energy=-36.69069450827975 pbc="T T T"
Cu       0.00000000       0.00000000       0.00000000
Cu       1.81473742       1.81473742      -0.00000000
Cu       3.62947484       3.62947484      -0.00000000
Ni       5.44421226       5.44421226      -0.00000000
Cu       7.25894968       7.25894968      -0.00000000
Ni       9.07368710       9.07368710      -0.00000000
Ni      10.88842452      10.88842452      -0.00000000
Ni      12.70316195      12.70316195      -0.00000000
8
Lattice="3.629474841626927 5.444212262440391 1.8147374208134635 7.258949683253854 5.444212262440391 1.8147374208134635 14.517899366507708 14.517899366507708 -4.773048300398239e-18" Properties=species:S:1:pos:R:3 mixing_energy=0.028364677138782657 energy=-36.72286435322982 pbc="T T T"
Cu       0.00000000       0.00000000       0.00000000
Cu       1.81473742       1.81473742      -0.00000000
Cu       3.62947484       3.62947484      -0.00000000
Ni       5.44421226       5.44421226      -0.00000000
Ni       7.25894968       7.25894968      -0.00000000
Cu       9.07368710       9.07368710      -0.00000000
Ni      10.88842452      10.88842452      -0.00000000
Ni      12.70316195      12.70316195      -0.00000000
8
Lattice="3.629474841626927 5.444212262440391 1.8147374208134635 7.258949683253854 5.444212262440391 1.8147374208134635 14.517899366507708 14.517899366507708 -4.773048300398239e-18" Properties=species:S:1:pos:R:3 mixing_energy=0.03508490471926207 energy=-38.413896438237686 pbc="T T T"
Cu       0.00000000       0.00000000       0.00000000
Cu       1.81473742       1.81473742      -0.00000000
Cu       3.62947484       3.62947484      -0.00000000
Ni       5.44421226       5.44421226      -0.00000000
Ni       7.25894968       7.25894968      -0.00000000
Ni       9.07368710       9.07368710      -0.00000000
Ni      10.88842452      10.88842452      -0.00000000
Ni      12.70316195      12.70316195      -0.00000000
8
Lattice="3.629474841626927 5.444212262440391 1.8147374208134635 7.258949683253854 5.444212262440391 1.8147374208134635 14.517899366507708 14.517899366507708 -4.773048300398239e-18" Properties=species:S:1:pos:R:3 mixing_energy=0.03035242828187945 energy=-36.70696234408504 pbc="T T T"
Cu       0.00000000       0.00000000       0.00000000
Cu       1.81473742       1.81473742      -0.00000000
Ni       3.62947484       3.62947484      -0.00000000
Cu       5.44421226       5.44421226      -0.00000000
Cu       7.25894968       7.25894968      -0.00000000
Ni       9.07368710       9.07368710      -0.00000000
Ni      10.88842452      10.88842452      -0.00000000
Ni      12.70316195      12.70316195      -0.00000000
8
Lattice="3.629474841626927 5.444212262440391 1.8147374208134635 7.258949683253854 5.444212262440391 1.8147374208134635 14.517899366507708 14.517899366507708 -4.773048300398239e-18" Properties=species:S:1:pos:R:3 mixing_energy=0.0357342475160185 energy=-38.408701695863634 pbc="T T T"
Cu       0.00000000       0.00000000       0.00000000
Cu       1.81473742       1.81473742      -0.00000000
Ni       3.62947484       3.62947484      -0.00000000
Cu       5.44421226       5.44421226      -0.00000000
Ni       7.25894968       7.25894968      -0.00000000
Ni       9.07368710       9.07368710      -0.00000000
Ni      10.88842452      10.88842452      -0.00000000
Ni      12.70316195      12.70316195      -0.00000000
8
Lattice="3.629474841626927 5.444212262440391 1.8147374208134635 7.258949683253854 5.444212262440391 1.8147374208134635 14.517899366507708 14.517899366507708 -4.773048300398239e-18" Properties=species:S:1:pos:R:3 mixing_energy=0.0323361510281317 energy=-38.43588646776673 pbc="T T T"
Cu       0.00000000       0.00000000       0.00000000
Cu       1.81473742       1.81473742      -0.00000000
Ni       3.62947484       3.62947484      -0.00000000
Ni       5.44421226       5.44421226      -0.00000000
Cu       7.25894968       7.25894968      -0.00000000
Ni       9.07368710       9.07368710      -0.00000000
Ni      10.88842452      10.88842452      -0.00000000
Ni      12.70316195      12.70316195      -0.00000000
8
Lattice="3.629474841626927 5.444212262440391 1.8147374208134635 7.258949683253854 5.444212262440391 1.8147374208134635 14.517899366507708 14.517899366507708 -4.773048300398239e-18" Properties=species:S:1:pos:R:3 mixing_energy=0.03093951926984051 energy=-40.19185342748476 pbc="T T T"
Cu       0.00000000       0.00000000       0.00000000
Cu       1.81473742       1.81473742      -0.00000000
Ni       3.62947484       3.62947484      -0.00000000
Ni       5.44421226       5.44421226      -0.00000000
Ni       7.25894968       7.25894968      -0.00000000
Ni       9.07368710       9.07368710      -0.00000000
Ni      10.88842452      10.88842452      -0.00000000
Ni      12.70316195      12.70316195      -0.00000000
8
Lattice="3.629474841626927 5.444212262440391 1.8147374208134635 7.258949683253854 5.444212262440391 1.8147374208134635 14.517899366507708 14.517899366507708 -4.773048300398239e-18" Properties=species:S:1:pos:R:3 mixing_energy=0.04011959287367217 energy=-38.373618933002405 pbc="T T T"
Cu       0.00000000       0.00000000       0.00000000
Ni       1.81473742       1.81473742      -0.00000000
Cu       3.62947484       3.62947484      -0.00000000
Ni       5.44421226       5.44421226      -0.00000000
Cu       7.25894968       7.25894968      -0.00000000
Ni       9.07368710       9.07368710      -0.00000000
Ni      10.88842452      10.88842452      -0.00000000
Ni      12.70316195      12.70316195      -0.00000000
8
Lattice="3.629474841626927 5.444212262440391 1.8147374208134635 7.258949683253854 5.444212262440391 1.8147374208134635 14.517899366507708 14.517899366507708 -4.773048300398239e-18" Properties=species:S:1:pos:R:3 mixing_energy=0.03495293219819917 energy=-40.15974612405789 pbc="T T T"
Cu       0.00000000       0.00000000       0.00000000
Ni       1.81473742       1.81473742      -0.00000000
Cu       3.62947484       3.62947484      -0.00000000
Ni       5.44421226       5.44421226      -0.00000000
Ni       7.25894968       7.25894968      -0.00000000
Ni       9.07368710       9.07368710      -0.00000000
Ni      10.88842452      10.88842452      -0.00000000
Ni      12.70316195      12.70316195      -0.00000000
8
Lattice="3.629474841626927 5.444212262440391 1.8147374208134635 7.258949683253854 5.444212262440391 1.8147374208134635 14.517899366507708 14.517899366507708 -4.773048300398239e-18" Properties=species:S:1:pos:R:3 mixing_energy=0.020840910583480365 energy=-42.01743620262735 pbc="T T T"
Cu       0.00000000       0.00000000       0.00000000
Ni       1.81473742       1.81473742      -0.00000000
Ni       3.62947484       3.62947484      -0.00000000
Ni       5.44421226       5.44421226      -0.00000000
Ni       7.25894968       7.25894968      -0.00000000
Ni       9.07368710       9.07368710      -0.00000000
Ni      10.88842452      10.88842452      -0.00000000
Ni      12.70316195      12.70316195      -0.00000000
8
Lattice="5.444212262440391 7.258949683253854 1.8147374208134635 9.073687104067318 7.258949683253854 1.8147374208134635 14.517899366507708 14.517899366507708 -4.773048300398239e-18" Properties=species:S:1:pos:R:3 mixing_energy=0.0042651070098606025 energy=-31.681279197306083 pbc="T T T"
Cu       0.00000000       0.00000000       0.00000000
Cu       1.81473742       1.81473742      -0.00000000
Cu       3.62947484       3.62947484      -0.00000000
Cu       5.44421226       5.44421226      -0.00000000
Cu       7.25894968       7.25894968      -0.00000000
Cu       9.07368710       9.07368710      -0.00000000
Cu      10.88842452      10.88842452      -0.00000000
Ni      12.70316195      12.70316195      -0.00000000
8
Lattice="5.444212262440391 7.258949683253854 1.8147374208134635 9.073687104067318 7.258949683253854 1.8147374208134635 14.517899366507708 14.517899366507708 -4.773048300398239e-18" Properties=species:S:1:pos:R:3 mixing_energy=0.013202303681273397 energy=-33.354575529586484 pbc="T T T"
Cu       0.00000000       0.00000000       0.00000000
Cu       1.81473742       1.81473742      -0.00000000
Cu       3.62947484       3.62947484      -0.00000000
Cu       5.44421226       5.44421226      -0.00000000
Cu       7.25894968       7.25894968      -0.00000000
Cu       9.07368710       9.07368710      -0.00000000
Ni      10.88842452      10.88842452      -0.00000000
Ni      12.70316195      12.70316195      -0.00000000
8
Lattice="5.444212262440391 7.258949683253854 1.8147374208134635 9.073687104067318 7.258949683253854 1.8147374208134635 14.517899366507708 14.517899366507708 -4.773048300398239e-18" Properties=species:S:1:pos:R:3 mixing_energy=0.0140786497830232 energy=-33.347564760772485 pbc="T T T"
Cu       0.00000000       0.00000000       0.00000000
Cu       1.81473742       1.81473742      -0.00000000
Cu       3.62947484       3.62947484      -0.00000000
Cu       5.44421226       5.44421226      -0.00000000
Cu       7.25894968       7.25894968      -0.00000000
Ni       9.07368710       9.07368710      -0.00000000
Cu      10.88842452      10.88842452      -0.00000000
Ni      12.70316195      12.70316195      -0.00000000
8
Lattice="5.444212262440391 7.258949683253854 1.8147374208134635 9.073687104067318 7.258949683253854 1.8147374208134635 14.517899366507708 14.517899366507708 -4.773048300398239e-18" Properties=species:S:1:pos:R:3 mixing_energy=0.02696251915251624 energy=-34.98928771146824 pbc="T T T"
Cu       0.00000000       0.00000000       0.00000000
Cu       1.81473742       1.81473742      -0.00000000
Cu       3.62947484       3.62947484      -0.00000000
Cu       5.44421226       5.44421226      -0.00000000
Cu       7.25894968       7.25894968      -0.00000000
Ni       9.07368710       9.07368710      -0.00000000
Ni      10.88842452      10.88842452      -0.00000000
Ni      12.70316195      12.70316195      -0.00000000
8
Lattice="5.444212262440391 7.258949683253854 1.8147374208134635 9.073687104067318 7.258949683253854 1.8147374208134635 14.517899366507708 14.517899366507708 -4.773048300398239e-18" Properties=species:S:1:pos:R:3 mixing_energy=0.024201827326260972 energy=-35.011373246078286 pbc="T T T"
Cu       0.00000000       0.00000000       0.00000000
Cu       1.81473742       1.81473742      -0.00000000
Cu       3.62947484       3.62947484      -0.00000000
Cu       5.44421226       5.44421226      -0.00000000
Ni       7.25894968       7.25894968      -0.00000000
Cu       9.07368710       9.07368710      -0.00000000
Ni      10.88842452      10.88842452      -0.00000000
Ni      12.70316195      12.70316195      -0.00000000
8
Lattice="5.444212262440391 7.258949683253854 1.8147374208134635 9.073687104067318 7.258949683253854 1.8147374208134635 14.517899366507708 14.517899366507708 -4.773048300398239e-18" Properties=species:S:1:pos:R:3 mixing_energy=0.03791108350659611 energy=-36.64649310228731 pbc="T T T"
Cu       0.00000000       0.00000000       0.00000000
Cu       1.81473742       1.81473742      -0.00000000
Cu       3.62947484       3.62947484      -0.00000000
Cu       5.44421226       5.44421226      -0.00000000
Ni       7.25894968       7.25894968      -0.00000000
Ni       9.07368710       9.07368710      -0.00000000
Ni      10.88842452      10.88842452      -0.00000000
Ni      12.70316195      12.70316195      -0.00000000
8
Lattice="5.444212262440391 7.258949683253854 1.8147374208134635 9.073687104067318 7.258949683253854 1.8147374208134635 14.517899366507708 14.517899366507708 -4.773048300398239e-18" Properties=species:S:1:pos:R:3 mixing_energy=0.017971238774891152 energy=-35.061217954489244 pbc="T T T"
Cu       0.00000000       0.00000000       0.00000000
Cu       1.81473742       1.81473742      -0.00000000
Cu       3.62947484       3.62947484      -0.00000000
Ni       5.44421226       5.44421226      -0.00000000
Cu       7.25894968       7.25894968      -0.00000000
Cu       9.07368710       9.07368710      -0.00000000
Ni      10.88842452      10.88842452      -0.00000000
Ni      12.70316195      12.70316195      -0.00000000
8
Lattice="5.444212262440391 7.258949683253854 1.8147374208134635 9.073687104067318 7.258949683253854 1.8147374208134635 14.517899366507708 14.517899366507708 -4.773048300398239e-18" Properties=species:S:1:pos:R:3 mixing_energy=0.025288801020841856 energy=-35.00267745652164 pbc="T T T"
Cu       0.00000000       0.00000000       0.00000000
Cu       1.81473742       1.81473742      -0.00000000
Cu       3.62947484       3.62947484      -0.00000000
Ni       5.44421226       5.44421226      -0.00000000
Cu       7.25894968       7.25894968      -0.00000000
Ni       9.07368710       9.07368710      -0.00000000
Cu      10.88842452      10.88842452      -0.00000000
Ni      12.70316195      12.70316195      -0.00000000
8
Lattice="5.444212262440391 7.258949683253854 1.8147374208134635 9.073687104067318 7.258949683253854 1.8147374208134635 14.517899366507708 14.517899366507708 -4.773048300398239e-18" Properties=species:S:1:pos:R:3 mixing_energy=0.032321494904145265 energy=-36.691209811106916 pbc="T T T"
Cu       0.00000000       0.00000000       0.00000000
Cu       1.81473742       1.81473742      -0.00000000
Cu       3.62947484       3.62947484      -0.00000000
Ni       5.44421226       5.44421226      -0.00000000
Cu       7.25894968       7.25894968      -0.00000000
Ni       9.07368710       9.07368710      -0.00000000
Ni      10.88842452      10.88842452      -0.00000000
Ni      12.70316195      12.70316195      -0.00000000
8
Lattice="5.444212262440391 7.258949683253854 1.8147374208134635 9.073687104067318 7.258949683253854 1.8147374208134635 14.517899366507708 14.517899366507708 -4.773048300398239e-18" Properties=species:S:1:pos:R:3 mixing_energy=0.025553680894947473 energy=-36.7453523231805 pbc="T T T"
Cu       0.00000000       0.00000000       0.00000000
Cu       1.81473742       1.81473742      -0.00000000
Cu       3.62947484       3.62947484      -0.00000000
Ni       5.44421226       5.44421226      -0.00000000
Ni       7.25894968       7.25894968      -0.00000000
Cu       9.07368710       9.07368710      -0.00000000
Ni      10.88842452      10.88842452      -0.00000000
Ni      12.70316195      12.70316195      -0.00000000
8
Lattice="5.444212262440391 7.258949683253854 1.8147374208134635 9.073687104067318 7.258949683253854 1.8147374208134635 14.517899366507708 14.517899366507708 -4.773048300398239e-18" Properties=species:S:1:pos:R:3 mixing_energy=0.03811501458582045 energy=-38.38965555930522 pbc="T T T"
Cu       0.00000000       0.00000000       0.00000000
Cu       1.81473742       1.81473742      -0.00000000
Cu       3.62947484       3.62947484      -0.00000000
Ni       5.44421226       5.44421226      -0.00000000
Ni       7.25894968       7.25894968      -0.00000000
Ni       9.07368710       9.07368710      -0.00000000
Ni      10.88842452      10.88842452      -0.00000000
Ni      12.70316195      12.70316195      -0.00000000
8
Lattice="5.444212262440391 7.258949683253854 1.8147374208134635 9.073687104067318 7.258949683253854 1.8147374208134635 14.517899366507708 14.517899366507708 -4.773048300398239e-18" Properties=species:S:1:pos:R:3 mixing_energy=0.029489253560809114 energy=-36.713867741853605 pbc="T T T"
Cu       0.00000000       0.00000000       0.00000000
Cu       1.81473742       1.81473742      -0.00000000
Ni       3.62947484       3.62947484      -0.00000000
Cu       5.44421226       5.44421226      -0.00000000
Cu       7.25894968       7.25894968      -0.00000000
Ni       9.07368710       9.07368710      -0.00000000
Ni      10.88842452      10.88842452      -0.00000000
Ni      12.70316195      12.70316195      -0.00000000
8
Lattice="5.444212262440391 7.258949683253854 1.8147374208134635 9.073687104067318 7.258949683253854 1.8147374208134635 14.517899366507708 14.517899366507708 -4.773048300398239e-18" Properties=species:S:1:pos:R:3 mixing_energy=0.039910886102636045 energy=-38.375288587170694 pbc="T T T"
Cu       0.00000000       0.00000000       0.00000000
Cu       1.81473742       1.81473742      -0.00000000
Ni       3.62947484       3.62947484      -0.00000000
Cu       5.44421226       5.44421226      -0.00000000
Ni       7.25894968       7.25894968      -0.00000000
Ni       9.07368710       9.07368710      -0.00000000
Ni      10.88842452      10.88842452      -0.00000000
Ni      12.70316195      12.70316195      -0.00000000
8
Lattice="5.444212262440391 7.258949683253854 1.8147374208134635 9.073687104067318 7.258949683253854 1.8147374208134635 14.517899366507708 14.517899366507708 -4.773048300398239e-18" Properties=species:S:1:pos:R:3 mixing_energy=0.026266722078668092 energy=-38.48444189936244 pbc="T T T"
Cu       0.00000000       0.00000000       0.00000000
Cu       1.81473742       1.81473742      -0.00000000
Ni       3.62947484       3.62947484      -0.00000000
Ni       5.44421226       5.44421226      -0.00000000
Cu       7.25894968       7.25894968      -0.00000000
Ni       9.07368710       9.07368710      -0.00000000
Ni      10.88842452      10.88842452      -0.00000000
Ni      12.70316195      12.70316195      -0.00000000
8
Lattice="5.444212262440391 7.258949683253854 1.8147374208134635 9.073687104067318 7.258949683253854 1.8147374208134635 14.517899366507708 14.517899366507708 -4.773048300398239e-18" Properties=species:S:1:pos:R:3 mixing_energy=0.03132383885618584 energy=-40.188778870793996 pbc="T T T"
Cu       0.00000000       0.00000000       0.00000000
Cu       1.81473742       1.81473742      -0.00000000
Ni       3.62947484       3.62947484      -0.00000000
Ni       5.44421226       5.44421226      -0.00000000
Ni       7.25894968       7.25894968      -0.00000000
Ni       9.07368710       9.07368710      -0.00000000
Ni      10.88842452      10.88842452      -0.00000000
Ni      12.70316195      12.70316195      -0.00000000
8
Lattice="5.444212262440391 7.258949683253854 1.8147374208134635 9.073687104067318 7.258949683253854 1.8147374208134635 14.517899366507708 14.517899366507708 -4.773048300398239e-18" Properties=species:S:1:pos:R:3 mixing_energy=0.038979767701487145 energy=-38.382737534379885 pbc="T T T"
Cu       0.00000000       0.00000000       0.00000000
Ni       1.81473742       1.81473742      -0.00000000
Cu       3.62947484       3.62947484      -0.00000000
Ni       5.44421226       5.44421226      -0.00000000
Cu       7.25894968       7.25894968      -0.00000000
Ni       9.07368710       9.07368710      -0.00000000
Ni      10.88842452      10.88842452      -0.00000000
Ni      12.70316195      12.70316195      -0.00000000
8
Lattice="5.444212262440391 7.258949683253854 1.8147374208134635 9.073687104067318 7.258949683253854 1.8147374208134635 14.517899366507708 14.517899366507708 -4.773048300398239e-18" Properties=species:S:1:pos:R:3 mixing_energy=0.0376288068581383 energy=-40.13833912677838 pbc="T T T"
Cu       0.00000000       0.00000000       0.00000000
Ni       1.81473742       1.81473742      -0.00000000
Cu       3.62947484       3.62947484      -0.00000000
Ni       5.44421226       5.44421226      -0.00000000
Ni       7.25894968       7.25894968      -0.00000000
Ni       9.07368710       9.07368710      -0.00000000
Ni      10.88842452      10.88842452      -0.00000000
Ni      12.70316195      12.70316195      -0.00000000
8
Lattice="5.444212262440391 7.258949683253854 1.8147374208134635 9.073687104067318 7.258949683253854 1.8147374208134635 14.517899366507708 14.517899366507708 -4.773048300398239e-18" Properties=species:S:1:pos:R:3 mixing_energy=0.020703184464908375 energy=-42.01853801157592 pbc="T T T"
Cu       0.00000000       0.00000000       0.00000000
Ni       1.81473742       1.81473742      -0.00000000
Ni       3.62947484       3.62947484      -0.00000000
Ni       5.44421226       5.44421226      -0.00000000
Ni       7.25894968       7.25894968      -0.00000000
Ni       9.07368710       9.07368710      -0.00000000
Ni      10.88842452      10.88842452      -0.00000000
Ni      12.70316195      12.70316195      -0.00000000
8
Lattice="1.8091173701940726e-18 1.8147374208134635 1.8147374208134635 3.629474841626927 1.7313880990358154e-17 3.629474841626927 7.258949683253854 7.258949683253854 -2.3865241501991196e-18" Properties=species:S:1:pos:R:3 mixing_energy=0.004064727082717101 energy=-31.68288223672323 pbc="T T T"
Cu       0.00000000       0.00000000       0.00000000
Cu       1.81473742       1.81473742      -0.00000000
Cu       3.62947484       3.62947484      -0.00000000
Cu       5.44421226       5.44421226      -0.00000000
Cu       1.81473742       0.00000000       1.81473742
Cu       3.62947484       1.81473742       1.81473742
Cu       5.44421226       3.62947484       1.81473742
Ni       7.25894968       5.44421226       1.81473742
8
Lattice="1.8091173701940726e-18 1.8147374208134635 1.8147374208134635 3.629474841626927 1.7313880990358154e-17 3.629474841626927 7.258949683253854 7.258949683253854 -2.3865241501991196e-18" Properties=species:S:1:pos:R:3 mixing_energy=0.010345580981370395 energy=-33.37742931118571 pbc="T T T"
Cu       0.00000000       0.00000000       0.00000000
Cu       1.81473742       1.81473742      -0.00000000
Cu       3.62947484       3.62947484      -0.00000000
Cu       5.44421226       5.44421226      -0.00000000
Cu       1.81473742       0.00000000       1.81473742
Cu       3.62947484       1.81473742       1.81473742
Ni       5.44421226       3.62947484       1.81473742
Ni       7.25894968       5.44421226       1.81473742
8
Lattice="1.8091173701940726e-18 1.8147374208134635 1.8147374208134635 3.629474841626927 1.7313880990358154e-17 3.629474841626927 7.258949683253854 7.258949683253854 -2.3865241501991196e-18" Properties=species:S:1:pos:R:3 mixing_energy=0.016905139246200296 energy=-35.06974675071877 pbc="T T T"
Cu       0.00000000       0.00000000       0.00000000
Cu       1.81473742       1.81473742      -0.00000000
Cu       3.62947484       3.62947484      -0.00000000
Cu       5.44421226       5.44421226      -0.00000000
Cu       1.81473742       0.00000000       1.81473742
Ni       3.62947484       1.81473742       1.81473742
Ni       5.44421226       3.62947484       1.81473742
Ni       7.25894968       5.44421226       1.81473742
8
Lattice="1.8091173701940726e-18 1.8147374208134635 1.8147374208134635 3.629474841626927 1.7313880990358154e-17 3.629474841626927 7.258949683253854 7.258949683253854 -2.3865241501991196e-18" Properties=species:S:1:pos:R:3 mixing_energy=0.01411835288072516 energy=-33.34724713599087 pbc="T T T"
Cu       0.00000000       0.00000000       0.00000000
Cu       1.81473742       1.81473742      -0.00000000
Cu       3.62947484       3.62947484      -0.00000000
Ni       5.44421226       5.44421226      -0.00000000
Cu       1.81473742       0.00000000       1.81473742
Cu       3.62947484       1.81473742       1.81473742
Ni       5.44421226       3.62947484       1.81473742
Cu       7.25894968       5.44421226       1.81473742
8
Lattice="1.8091173701940726e-18 1.8147374208134635 1.8147374208134635 3.629474841626927 1.7313880990358154e-17 3.629474841626927 7.258949683253854 7.258949683253854 -2.3865241501991196e-18" Properties=species:S:1:pos:R:3 mixing_energy=0.015831295823120595 energy=-35.07833749810341 pbc="T T T"
Cu       0.00000000       0.00000000       0.00000000
Cu       1.81473742       1.81473742      -0.00000000
Cu       3.62947484       3.62947484      -0.00000000
Ni       5.44421226       5.44421226      -0.00000000
Cu       1.81473742       0.00000000       1.81473742
Cu       3.62947484       1.81473742       1.81473742
Ni       5.44421226       3.62947484       1.81473742
Ni       7.25894968       5.44421226       1.81473742
8
Lattice="1.8091173701940726e-18 1.8147374208134635 1.8147374208134635 3.629474841626927 1.7313880990358154e-17 3.629474841626927 7.258949683253854 7.258949683253854 -2.3865241501991196e-18" Properties=species:S:1:pos:R:3 mixing_energy=0.01605140123819071 energy=-35.07657665478285 pbc="T T T"
Cu       0.00000000       0.00000000       0.00000000
Cu       1.81473742       1.81473742      -0.00000000
Cu       3.62947484       3.62947484      -0.00000000
Ni       5.44421226       5.44421226      -0.00000000
Cu       1.81473742       0.00000000       1.81473742
Ni       3.62947484       1.81473742       1.81473742
Cu       5.44421226       3.62947484       1.81473742
Ni       7.25894968       5.44421226       1.81473742
8
Lattice="1.8091173701940726e-18 1.8147374208134635 1.8147374208134635 3.629474841626927 1.7313880990358154e-17 3.629474841626927 7.258949683253854 7.258949683253854 -2.3865241501991196e-18" Properties=species:S:1:pos:R:3 mixing_energy=0.021644918292694104 energy=-35.03182851834682 pbc="T T T"
Cu       0.00000000       0.00000000       0.00000000
Cu       1.81473742       1.81473742      -0.00000000
Cu       3.62947484       3.62947484      -0.00000000
Ni       5.44421226       5.44421226      -0.00000000
Cu       1.81473742       0.00000000       1.81473742
Ni       3.62947484       1.81473742       1.81473742
Ni       5.44421226       3.62947484       1.81473742
Cu       7.25894968       5.44421226       1.81473742
8
Lattice="1.8091173701940726e-18 1.8147374208134635 1.8147374208134635 3.629474841626927 1.7313880990358154e-17 3.629474841626927 7.258949683253854 7.258949683253854 -2.3865241501991196e-18" Properties=species:S:1:pos:R:3 mixing_energy=0.022877968629804624 energy=-36.76675802130164 pbc="T T T"
Cu       0.00000000       0.00000000       0.00000000
Cu       1.81473742       1.81473742      -0.00000000
Cu       3.62947484       3.62947484      -0.00000000
Ni       5.44421226       5.44421226      -0.00000000
Cu       1.81473742       0.00000000       1.81473742
Ni       3.62947484       1.81473742       1.81473742
Ni       5.44421226       3.62947484       1.81473742
Ni       7.25894968       5.44421226       1.81473742
8
Lattice="1.8091173701940726e-18 1.8147374208134635 1.8147374208134635 3.629474841626927 1.7313880990358154e-17 3.629474841626927 7.258949683253854 7.258949683253854 -2.3865241501991196e-18" Properties=species:S:1:pos:R:3 mixing_energy=0.025052048553093176 energy=-35.00457147626363 pbc="T T T"
Cu       0.00000000       0.00000000       0.00000000
Cu       1.81473742       1.81473742      -0.00000000
Cu       3.62947484       3.62947484      -0.00000000
Ni       5.44421226       5.44421226      -0.00000000
Ni       1.81473742       0.00000000       1.81473742
Cu       3.62947484       1.81473742       1.81473742
Ni       5.44421226       3.62947484       1.81473742
Cu       7.25894968       5.44421226       1.81473742
8
Lattice="1.8091173701940726e-18 1.8147374208134635 1.8147374208134635 3.629474841626927 1.7313880990358154e-17 3.629474841626927 7.258949683253854 7.258949683253854 -2.3865241501991196e-18" Properties=species:S:1:pos:R:3 mixing_energy=0.02298977950817571 energy=-36.76586353427467 pbc="T T T"
Cu       0.00000000       0.00000000       0.00000000
Cu       1.81473742       1.81473742      -0.00000000
Cu       3.62947484       3.62947484      -0.00000000
Ni       5.44421226       5.44421226      -0.00000000
Ni       1.81473742       0.00000000       1.81473742
Cu       3.62947484       1.81473742       1.81473742
Ni       5.44421226       3.62947484       1.81473742
Ni       7.25894968       5.44421226       1.81473742
8
Lattice="1.8091173701940726e-18 1.8147374208134635 1.8147374208134635 3.629474841626927 1.7313880990358154e-17 3.629474841626927 7.258949683253854 7.258949683253854 -2.3865241501991196e-18" Properties=species:S:1:pos:R:3 mixing_energy=0.03078837801765344 energy=-36.70347474619885 pbc="T T T"
Cu       0.00000000       0.00000000       0.00000000
Cu       1.81473742       1.81473742      -0.00000000
Cu       3.62947484       3.62947484      -0.00000000
Ni       5.44421226       5.44421226      -0.00000000
Ni       1.81473742       0.00000000       1.81473742
Ni       3.62947484       1.81473742       1.81473742
Ni       5.44421226       3.62947484       1.81473742
Cu       7.25894968       5.44421226       1.81473742
8
Lattice="1.8091173701940726e-18 1.8147374208134635 1.8147374208134635 3.629474841626927 1.7313880990358154e-17 3.629474841626927 7.258949683253854 7.258949683253854 -2.3865241501991196e-18" Properties=species:S:1:pos:R:3 mixing_energy=0.02661512663565846 energy=-38.481654662906514 pbc="T T T"
Cu       0.00000000       0.00000000       0.00000000
Cu       1.81473742       1.81473742      -0.00000000
Cu       3.62947484       3.62947484      -0.00000000
Ni       5.44421226       5.44421226      -0.00000000
Ni       1.81473742       0.00000000       1.81473742
Ni       3.62947484       1.81473742       1.81473742
Ni       5.44421226       3.62947484       1.81473742
Ni       7.25894968       5.44421226       1.81473742
8
Lattice="1.8091173701940726e-18 1.8147374208134635 1.8147374208134635 3.629474841626927 1.7313880990358154e-17 3.629474841626927 7.258949683253854 7.258949683253854 -2.3865241501991196e-18" Properties=species:S:1:pos:R:3 mixing_energy=0.026916605481190015 energy=-36.73444892649056 pbc="T T T"
Cu       0.00000000       0.00000000       0.00000000
Cu       1.81473742       1.81473742      -0.00000000
Ni       3.62947484       3.62947484      -0.00000000
Ni       5.44421226       5.44421226      -0.00000000
Cu       1.81473742       0.00000000       1.81473742
Ni       3.62947484       1.81473742       1.81473742
Cu       5.44421226       3.62947484       1.81473742
Ni       7.25894968       5.44421226       1.81473742
8
Lattice="1.8091173701940726e-18 1.8147374208134635 1.8147374208134635 3.629474841626927 1.7313880990358154e-17 3.629474841626927 7.258949683253854 7.258949683253854 -2.3865241501991196e-18" Properties=species:S:1:pos:R:3 mixing_energy=0.02407749734982323 energy=-36.75716179154149 pbc="T T T"
Cu       0.00000000       0.00000000       0.00000000
Cu       1.81473742       1.81473742      -0.00000000
Ni       3.62947484       3.62947484      -0.00000000
Ni       5.44421226       5.44421226      -0.00000000
Cu       1.81473742       0.00000000       1.81473742
Ni       3.62947484       1.81473742       1.81473742
Ni       5.44421226       3.62947484       1.81473742
Cu       7.25894968       5.44421226       1.81473742
8
Lattice="1.8091173701940726e-18 1.8147374208134635 1.8147374208134635 3.629474841626927 1.7313880990358154e-17 3.629474841626927 7.258949683253854 7.258949683253854 -2.3865241501991196e-18" Properties=species:S:1:pos:R:3 mixing_energy=0.021994185706976754 energy=-38.51862219033597 pbc="T T T"
Cu       0.00000000       0.00000000       0.00000000
Cu       1.81473742       1.81473742      -0.00000000
Ni       3.62947484       3.62947484      -0.00000000
Ni       5.44421226       5.44421226      -0.00000000
Cu       1.81473742       0.00000000       1.81473742
Ni       3.62947484       1.81473742       1.81473742
Ni       5.44421226       3.62947484       1.81473742
Ni       7.25894968       5.44421226       1.81473742
8
Lattice="1.8091173701940726e-18 1.8147374208134635 1.8147374208134635 3.629474841626927 1.7313880990358154e-17 3.629474841626927 7.258949683253854 7.258949683253854 -2.3865241501991196e-18" Properties=species:S:1:pos:R:3 mixing_energy=0.03164412586665355 energy=-38.441422669058554 pbc="T T T"
Cu       0.00000000       0.00000000       0.00000000
Cu       1.81473742       1.81473742      -0.00000000
Ni       3.62947484       3.62947484      -0.00000000
Ni       5.44421226       5.44421226      -0.00000000
Ni       1.81473742       0.00000000       1.81473742
Ni       3.62947484       1.81473742       1.81473742
Cu       5.44421226       3.62947484       1.81473742
Ni       7.25894968       5.44421226       1.81473742
8
Lattice="1.8091173701940726e-18 1.8147374208134635 1.8147374208134635 3.629474841626927 1.7313880990358154e-17 3.629474841626927 7.258949683253854 7.258949683253854 -2.3865241501991196e-18" Properties=species:S:1:pos:R:3 mixing_energy=0.023605487214859444 energy=-40.25052568392461 pbc="T T T"
Cu       0.00000000       0.00000000       0.00000000
Cu       1.81473742       1.81473742      -0.00000000
Ni       3.62947484       3.62947484      -0.00000000
Ni       5.44421226       5.44421226      -0.00000000
Ni       1.81473742       0.00000000       1.81473742
Ni       3.62947484       1.81473742       1.81473742
Ni       5.44421226       3.62947484       1.81473742
Ni       7.25894968       5.44421226       1.81473742
8
Lattice="1.8091173701940726e-18 1.8147374208134635 1.8147374208134635 3.629474841626927 1.7313880990358154e-17 3.629474841626927 7.258949683253854 7.258949683253854 -2.3865241501991196e-18" Properties=species:S:1:pos:R:3 mixing_energy=0.027179789823580602 energy=-38.47713735740314 pbc="T T T"
Cu       0.00000000       0.00000000       0.00000000
Ni       1.81473742       1.81473742      -0.00000000
Cu       3.62947484       3.62947484      -0.00000000
Ni       5.44421226       5.44421226      -0.00000000
Cu       1.81473742       0.00000000       1.81473742
Ni       3.62947484       1.81473742       1.81473742
Ni       5.44421226       3.62947484       1.81473742
Ni       7.25894968       5.44421226       1.81473742
8
Lattice="1.8091173701940726e-18 1.8147374208134635 1.8147374208134635 3.629474841626927 1.7313880990358154e-17 3.629474841626927 7.258949683253854 7.258949683253854 -2.3865241501991196e-18" Properties=species:S:1:pos:R:3 mixing_energy=0.03503463148643382 energy=-38.41429862410031 pbc="T T T"
Cu       0.00000000       0.00000000       0.00000000
Ni       1.81473742       1.81473742      -0.00000000
Cu       3.62947484       3.62947484      -0.00000000
Ni       5.44421226       5.44421226      -0.00000000
Ni       1.81473742       0.00000000       1.81473742
Cu       3.62947484       1.81473742       1.81473742
Ni       5.44421226       3.62947484       1.81473742
Ni       7.25894968       5.44421226       1.81473742
8
Lattice="1.8091173701940726e-18 1.8147374208134635 1.8147374208134635 3.629474841626927 1.7313880990358154e-17 3.629474841626927 7.258949683253854 7.258949683253854 -2.3865241501991196e-18" Properties=species:S:1:pos:R:3 mixing_energy=0.02764686040603781 energy=-40.21819469839518 pbc="T T T"
Cu       0.00000000       0.00000000       0.00000000
Ni       1.81473742       1.81473742      -0.00000000
Ni       3.62947484       3.62947484      -0.00000000
Ni       5.44421226       5.44421226      -0.00000000
Ni       1.81473742       0.00000000       1.81473742
Cu       3.62947484       1.81473742       1.81473742
Ni       5.44421226       3.62947484       1.81473742
Ni       7.25894968       5.44421226       1.81473742
8
Lattice="1.8091173701940726e-18 1.8147374208134635 1.8147374208134635 3.629474841626927 1.7313880990358154e-17 3.629474841626927 7.258949683253854 7.258949683253854 -2.3865241501991196e-18" Properties=species:S:1:pos:R:3 mixing_energy=0.01659305087779117 energy=-42.051419080272865 pbc="T T T"
Cu       0.00000000       0.00000000       0.00000000
Ni       1.81473742       1.81473742      -0.00000000
Ni       3.62947484       3.62947484      -0.00000000
Ni       5.44421226       5.44421226      -0.00000000
Ni       1.81473742       0.00000000       1.81473742
Ni       3.62947484       1.81473742       1.81473742
Ni       5.44421226       3.62947484       1.81473742
Ni       7.25894968       5.44421226       1.81473742
8
Lattice="1.8091173701940726e-18 1.8147374208134635 1.8147374208134635 7.258949683253854 3.629474841626927 3.629474841626927 7.258949683253854 7.258949683253854 -2.3865241501991196e-18" Properties=species:S:1:pos:R:3 mixing_energy=0.002730304108949144 energy=-31.693557620513374 pbc="T T T"
Cu       0.00000000       0.00000000       0.00000000
Cu       1.81473742       1.81473742      -0.00000000
Cu       3.62947484       3.62947484      -0.00000000
Cu       5.44421226       5.44421226      -0.00000000
Cu       3.62947484       1.81473742       1.81473742
Cu       5.44421226       3.62947484       1.81473742
Cu       7.25894968       5.44421226       1.81473742
Ni       9.07368710       7.25894968       1.81473742
8
Lattice="1.8091173701940726e-18 1.8147374208134635 1.8147374208134635 7.258949683253854 3.629474841626927 3.629474841626927 7.258949683253854 7.258949683253854 -2.3865241501991196e-18" Properties=species:S:1:pos:R:3 mixing_energy=0.008084996230534491 energy=-33.395513989192395 pbc="T T T"
Cu       0.00000000       0.00000000       0.00000000
Cu       1.81473742       1.81473742      -0.00000000
Cu       3.62947484       3.62947484      -0.00000000
Cu       5.44421226       5.44421226      -0.00000000
Cu       3.62947484       1.81473742       1.81473742
Cu       5.44421226       3.62947484       1.81473742
Ni       7.25894968       5.44421226       1.81473742
Ni       9.07368710       7.25894968       1.81473742
8
Lattice="1.8091173701940726e-18 1.8147374208134635 1.8147374208134635 7.258949683253854 3.629474841626927 3.629474841626927 7.258949683253854 7.258949683253854 -2.3865241501991196e-18" Properties=species:S:1:pos:R:3 mixing_energy=0.01603604750542109 energy=-35.076699484645005 pbc="T T T"
Cu       0.00000000       0.00000000       0.00000000
Cu       1.81473742       1.81473742      -0.00000000
Cu       3.62947484       3.62947484      -0.00000000
Cu       5.44421226       5.44421226      -0.00000000
Cu       3.62947484       1.81473742       1.81473742
Ni       5.44421226       3.62947484       1.81473742
Ni       7.25894968       5.44421226       1.81473742
Ni       9.07368710       7.25894968       1.81473742
8
Lattice="1.8091173701940726e-18 1.8147374208134635 1.8147374208134635 7.258949683253854 3.629474841626927 3.629474841626927 7.258949683253854 7.258949683253854 -2.3865241501991196e-18" Properties=species:S:1:pos:R:3 mixing_energy=0.01798866786199982 energy=-35.061078521792375 pbc="T T T"
Cu       0.00000000       0.00000000       0.00000000
Cu       1.81473742       1.81473742      -0.00000000
Cu       3.62947484       3.62947484      -0.00000000
Ni       5.44421226       5.44421226      -0.00000000
Cu       3.62947484       1.81473742       1.81473742
Cu       5.44421226       3.62947484       1.81473742
Ni       7.25894968       5.44421226       1.81473742
Ni       9.07368710       7.25894968       1.81473742
8
Lattice="1.8091173701940726e-18 1.8147374208134635 1.8147374208134635 7.258949683253854 3.629474841626927 3.629474841626927 7.258949683253854 7.258949683253854 -2.3865241501991196e-18" Properties=species:S:1:pos:R:3 mixing_energy=0.02379482151260026 energy=-35.01462929258757 pbc="T T T"
Cu       0.00000000       0.00000000       0.00000000
Cu       1.81473742       1.81473742      -0.00000000
Cu       3.62947484       3.62947484      -0.00000000
Ni       5.44421226       5.44421226      -0.00000000
Cu       3.62947484       1.81473742       1.81473742
Ni       5.44421226       3.62947484       1.81473742
Cu       7.25894968       5.44421226       1.81473742
Ni       9.07368710       7.25894968       1.81473742
8
Lattice="1.8091173701940726e-18 1.8147374208134635 1.8147374208134635 7.258949683253854 3.629474841626927 3.629474841626927 7.258949683253854 7.258949683253854 -2.3865241501991196e-18" Properties=species:S:1:pos:R:3 mixing_energy=0.014954315069056978 energy=-35.08535334413592 pbc="T T T"
Cu       0.00000000       0.00000000       0.00000000
Cu       1.81473742       1.81473742      -0.00000000
Cu       3.62947484       3.62947484      -0.00000000
Ni       5.44421226       5.44421226      -0.00000000
Cu       3.62947484       1.81473742       1.81473742
Ni       5.44421226       3.62947484       1.81473742
Ni       7.25894968       5.44421226       1.81473742
Cu       9.07368710       7.25894968       1.81473742
8
Lattice="1.8091173701940726e-18 1.8147374208134635 1.8147374208134635 7.258949683253854 3.629474841626927 3.629474841626927 7.258949683253854 7.258949683253854 -2.3865241501991196e-18" Properties=species:S:1:pos:R:3 mixing_energy=0.026031961446994156 energy=-36.741526078764124 pbc="T T T"
Cu       0.00000000       0.00000000       0.00000000
Cu       1.81473742       1.81473742      -0.00000000
Cu       3.62947484       3.62947484      -0.00000000
Ni       5.44421226       5.44421226      -0.00000000
Cu       3.62947484       1.81473742       1.81473742
Ni       5.44421226       3.62947484       1.81473742
Ni       7.25894968       5.44421226       1.81473742
Ni       9.07368710       7.25894968       1.81473742
8
Lattice="1.8091173701940726e-18 1.8147374208134635 1.8147374208134635 7.258949683253854 3.629474841626927 3.629474841626927 7.258949683253854 7.258949683253854 -2.3865241501991196e-18" Properties=species:S:1:pos:R:3 mixing_energy=0.02409721528792952 energy=-36.75700404803664 pbc="T T T"
Cu       0.00000000       0.00000000       0.00000000
Cu       1.81473742       1.81473742      -0.00000000
Cu       3.62947484       3.62947484      -0.00000000
Ni       5.44421226       5.44421226      -0.00000000
Ni       3.62947484       1.81473742       1.81473742
Cu       5.44421226       3.62947484       1.81473742
Ni       7.25894968       5.44421226       1.81473742
Ni       9.07368710       7.25894968       1.81473742
8
Lattice="1.8091173701940726e-18 1.8147374208134635 1.8147374208134635 7.258949683253854 3.629474841626927 3.629474841626927 7.258949683253854 7.258949683253854 -2.3865241501991196e-18" Properties=species:S:1:pos:R:3 mixing_energy=0.019733876308053677 energy=-36.79191075987565 pbc="T T T"
Cu       0.00000000       0.00000000       0.00000000
Cu       1.81473742       1.81473742      -0.00000000
Cu       3.62947484       3.62947484      -0.00000000
Ni       5.44421226       5.44421226      -0.00000000
Ni       3.62947484       1.81473742       1.81473742
Ni       5.44421226       3.62947484       1.81473742
Ni       7.25894968       5.44421226       1.81473742
Cu       9.07368710       7.25894968       1.81473742
8
Lattice="1.8091173701940726e-18 1.8147374208134635 1.8147374208134635 7.258949683253854 3.629474841626927 3.629474841626927 7.258949683253854 7.258949683253854 -2.3865241501991196e-18" Properties=species:S:1:pos:R:3 mixing_energy=0.026452148956348065 energy=-38.482958484341 pbc="T T T"
Cu       0.00000000       0.00000000       0.00000000
Cu       1.81473742       1.81473742      -0.00000000
Cu       3.62947484       3.62947484      -0.00000000
Ni       5.44421226       5.44421226      -0.00000000
Ni       3.62947484       1.81473742       1.81473742
Ni       5.44421226       3.62947484       1.81473742
Ni       7.25894968       5.44421226       1.81473742
Ni       9.07368710       7.25894968       1.81473742
8
Lattice="1.8091173701940726e-18 1.8147374208134635 1.8147374208134635 7.258949683253854 3.629474841626927 3.629474841626927 7.258949683253854 7.258949683253854 -2.3865241501991196e-18" Properties=species:S:1:pos:R:3 mixing_energy=0.02261333430653023 energy=-36.768875095887836 pbc="T T T"
Cu       0.00000000       0.00000000       0.00000000
Cu       1.81473742       1.81473742      -0.00000000
Ni       3.62947484       3.62947484      -0.00000000
Ni       5.44421226       5.44421226      -0.00000000
Cu       3.62947484       1.81473742       1.81473742
Ni       5.44421226       3.62947484       1.81473742
Ni       7.25894968       5.44421226       1.81473742
Cu       9.07368710       7.25894968       1.81473742
8
Lattice="1.8091173701940726e-18 1.8147374208134635 1.8147374208134635 7.258949683253854 3.629474841626927 3.629474841626927 7.258949683253854 7.258949683253854 -2.3865241501991196e-18" Properties=species:S:1:pos:R:3 mixing_energy=0.0292256191465321 energy=-38.460770722819525 pbc="T T T"
Cu       0.00000000       0.00000000       0.00000000
Cu       1.81473742       1.81473742      -0.00000000
Ni       3.62947484       3.62947484      -0.00000000
Ni       5.44421226       5.44421226      -0.00000000
Cu       3.62947484       1.81473742       1.81473742
Ni       5.44421226       3.62947484       1.81473742
Ni       7.25894968       5.44421226       1.81473742
Ni       9.07368710       7.25894968       1.81473742
8
Lattice="1.8091173701940726e-18 1.8147374208134635 1.8147374208134635 7.258949683253854 3.629474841626927 3.629474841626927 7.258949683253854 7.258949683253854 -2.3865241501991196e-18" Properties=species:S:1:pos:R:3 mixing_energy=0.022934674759389484 energy=-38.511098277916666 pbc="T T T"
Cu       0.00000000       0.00000000       0.00000000
Cu       1.81473742       1.81473742      -0.00000000
Ni       3.62947484       3.62947484      -0.00000000
Ni       5.44421226       5.44421226      -0.00000000
Ni       3.62947484       1.81473742       1.81473742
Ni       5.44421226       3.62947484       1.81473742
Cu       7.25894968       5.44421226       1.81473742
Ni       9.07368710       7.25894968       1.81473742
8
Lattice="1.8091173701940726e-18 1.8147374208134635 1.8147374208134635 7.258949683253854 3.629474841626927 3.629474841626927 7.258949683253854 7.258949683253854 -2.3865241501991196e-18" Properties=species:S:1:pos:R:3 mixing_energy=0.023481781565116044 energy=-40.251515329122554 pbc="T T T"
Cu       0.00000000       0.00000000       0.00000000
Cu       1.81473742       1.81473742      -0.00000000
Ni       3.62947484       3.62947484      -0.00000000
Ni       5.44421226       5.44421226      -0.00000000
Ni       3.62947484       1.81473742       1.81473742
Ni       5.44421226       3.62947484       1.81473742
Ni       7.25894968       5.44421226       1.81473742
Ni       9.07368710       7.25894968       1.81473742
8
Lattice="1.8091173701940726e-18 1.8147374208134635 1.8147374208134635 7.258949683253854 3.629474841626927 3.629474841626927 7.258949683253854 7.258949683253854 -2.3865241501991196e-18" Properties=species:S:1:pos:R:3 mixing_energy=0.03538464694777543 energy=-38.41149850040958 pbc="T T T"
Cu       0.00000000       0.00000000       0.00000000
Ni       1.81473742       1.81473742      -0.00000000
Cu       3.62947484       3.62947484      -0.00000000
Ni       5.44421226       5.44421226      -0.00000000
Cu       3.62947484       1.81473742       1.81473742
Ni       5.44421226       3.62947484       1.81473742
Ni       7.25894968       5.44421226       1.81473742
Ni       9.07368710       7.25894968       1.81473742
8
Lattice="1.8091173701940726e-18 1.8147374208134635 1.8147374208134635 7.258949683253854 3.629474841626927 3.629474841626927 7.258949683253854 7.258949683253854 -2.3865241501991196e-18" Properties=species:S:1:pos:R:3 mixing_energy=0.016738637756365193 energy=-42.05025438524427 pbc="T T T"
Cu       0.00000000       0.00000000       0.00000000
Ni       1.81473742       1.81473742      -0.00000000
Ni       3.62947484       3.62947484      -0.00000000
Ni       5.44421226       5.44421226      -0.00000000
Ni       3.62947484       1.81473742       1.81473742
Ni       5.44421226       3.62947484       1.81473742
Ni       7.25894968       5.44421226       1.81473742
Ni       9.07368710       7.25894968       1.81473742
8
Lattice="1.8147374208134635 3.629474841626927 1.8147374208134635 3.629474841626927 1.7313880990358154e-17 3.629474841626927 7.258949683253854 7.258949683253854 -2.3865241501991196e-18" Properties=species:S:1:pos:R:3 mixing_energy=0.004103225854018677 energy=-31.682574246552818 pbc="T T T"
Cu       0.00000000       0.00000000       0.00000000
Cu       1.81473742       1.81473742      -0.00000000
Cu       3.62947484       3.62947484      -0.00000000
Cu       5.44421226       5.44421226      -0.00000000
Cu       1.81473742       0.00000000       1.81473742
Cu       3.62947484       1.81473742       1.81473742
Cu       5.44421226       3.62947484       1.81473742
Ni       7.25894968       5.44421226       1.81473742
8
Lattice="1.8147374208134635 3.629474841626927 1.8147374208134635 3.629474841626927 1.7313880990358154e-17 3.629474841626927 7.258949683253854 7.258949683253854 -2.3865241501991196e-18" Properties=species:S:1:pos:R:3 mixing_energy=0.01125353254243211 energy=-33.370165698697214 pbc="T T T"
Cu       0.00000000       0.00000000       0.00000000
Cu       1.81473742       1.81473742      -0.00000000
Cu       3.62947484       3.62947484      -0.00000000
Cu       5.44421226       5.44421226      -0.00000000
Cu       1.81473742       0.00000000       1.81473742
Cu       3.62947484       1.81473742       1.81473742
Ni       5.44421226       3.62947484       1.81473742
Ni       7.25894968       5.44421226       1.81473742
8
Lattice="1.8147374208134635 3.629474841626927 1.8147374208134635 3.629474841626927 1.7313880990358154e-17 3.629474841626927 7.258949683253854 7.258949683253854 -2.3865241501991196e-18" Properties=species:S:1:pos:R:3 mixing_energy=0.018113454175045174 energy=-35.06008023128801 pbc="T T T"
Cu       0.00000000       0.00000000       0.00000000
Cu       1.81473742       1.81473742      -0.00000000
Cu       3.62947484       3.62947484      -0.00000000
Cu       5.44421226       5.44421226      -0.00000000
Cu       1.81473742       0.00000000       1.81473742
Ni       3.62947484       1.81473742       1.81473742
Ni       5.44421226       3.62947484       1.81473742
Ni       7.25894968       5.44421226       1.81473742
8
Lattice="1.8147374208134635 3.629474841626927 1.8147374208134635 3.629474841626927 1.7313880990358154e-17 3.629474841626927 7.258949683253854 7.258949683253854 -2.3865241501991196e-18" Properties=species:S:1:pos:R:3 mixing_energy=0.01990104777162438 energy=-35.04577948251538 pbc="T T T"
Cu       0.00000000       0.00000000       0.00000000
Cu       1.81473742       1.81473742      -0.00000000
Cu       3.62947484       3.62947484      -0.00000000
Ni       5.44421226       5.44421226      -0.00000000
Cu       1.81473742       0.00000000       1.81473742
Cu       3.62947484       1.81473742       1.81473742
Ni       5.44421226       3.62947484       1.81473742
Ni       7.25894968       5.44421226       1.81473742
8
Lattice="1.8147374208134635 3.629474841626927 1.8147374208134635 3.629474841626927 1.7313880990358154e-17 3.629474841626927 7.258949683253854 7.258949683253854 -2.3865241501991196e-18" Properties=species:S:1:pos:R:3 mixing_energy=0.025154136949302686 energy=-35.00375476909395 pbc="T T T"
Cu       0.00000000       0.00000000       0.00000000
Cu       1.81473742       1.81473742      -0.00000000
Cu       3.62947484       3.62947484      -0.00000000
Ni       5.44421226       5.44421226      -0.00000000
Cu       1.81473742       0.00000000       1.81473742
Ni       3.62947484       1.81473742       1.81473742
Cu       5.44421226       3.62947484       1.81473742
Ni       7.25894968       5.44421226       1.81473742
8
Lattice="1.8147374208134635 3.629474841626927 1.8147374208134635 3.629474841626927 1.7313880990358154e-17 3.629474841626927 7.258949683253854 7.258949683253854 -2.3865241501991196e-18" Properties=species:S:1:pos:R:3 mixing_energy=0.024095973303932094 energy=-35.01222007825692 pbc="T T T"
Cu       0.00000000       0.00000000       0.00000000
Cu       1.81473742       1.81473742      -0.00000000
Cu       3.62947484       3.62947484      -0.00000000
Ni       5.44421226       5.44421226      -0.00000000
Cu       1.81473742       0.00000000       1.81473742
Ni       3.62947484       1.81473742       1.81473742
Ni       5.44421226       3.62947484       1.81473742
Cu       7.25894968       5.44421226       1.81473742
8
Lattice="1.8147374208134635 3.629474841626927 1.8147374208134635 3.629474841626927 1.7313880990358154e-17 3.629474841626927 7.258949683253854 7.258949683253854 -2.3865241501991196e-18" Properties=species:S:1:pos:R:3 mixing_energy=0.03088980500675431 energy=-36.70266333028604 pbc="T T T"
Cu       0.00000000       0.00000000       0.00000000
Cu       1.81473742       1.81473742      -0.00000000
Cu       3.62947484       3.62947484      -0.00000000
Ni       5.44421226       5.44421226      -0.00000000
Cu       1.81473742       0.00000000       1.81473742
Ni       3.62947484       1.81473742       1.81473742
Ni       5.44421226       3.62947484       1.81473742
Ni       7.25894968       5.44421226       1.81473742
8
Lattice="1.8147374208134635 3.629474841626927 1.8147374208134635 3.629474841626927 1.7313880990358154e-17 3.629474841626927 7.258949683253854 7.258949683253854 -2.3865241501991196e-18" Properties=species:S:1:pos:R:3 mixing_energy=0.02469901140092956 energy=-36.75218967913264 pbc="T T T"
Cu       0.00000000       0.00000000       0.00000000
Cu       1.81473742       1.81473742      -0.00000000
Cu       3.62947484       3.62947484      -0.00000000
Ni       5.44421226       5.44421226      -0.00000000
Ni       1.81473742       0.00000000       1.81473742
Cu       3.62947484       1.81473742       1.81473742
Ni       5.44421226       3.62947484       1.81473742
Ni       7.25894968       5.44421226       1.81473742
8
Lattice="1.8147374208134635 3.629474841626927 1.8147374208134635 3.629474841626927 1.7313880990358154e-17 3.629474841626927 7.258949683253854 7.258949683253854 -2.3865241501991196e-18" Properties=species:S:1:pos:R:3 mixing_energy=0.028962342849183198 energy=-36.71808302754661 pbc="T T T"
Cu       0.00000000       0.00000000       0.00000000
Cu       1.81473742       1.81473742      -0.00000000
Cu       3.62947484       3.62947484      -0.00000000
Ni       5.44421226       5.44421226      -0.00000000
Ni       1.81473742       0.00000000       1.81473742
Ni       3.62947484       1.81473742       1.81473742
Ni       5.44421226       3.62947484       1.81473742
Cu       7.25894968       5.44421226       1.81473742
8
Lattice="1.8147374208134635 3.629474841626927 1.8147374208134635 3.629474841626927 1.7313880990358154e-17 3.629474841626927 7.258949683253854 7.258949683253854 -2.3865241501991196e-18" Properties=species:S:1:pos:R:3 mixing_energy=0.02957665151135691 energy=-38.45796246390093 pbc="T T T"
Cu       0.00000000       0.00000000       0.00000000
Cu       1.81473742       1.81473742      -0.00000000
Cu       3.62947484       3.62947484      -0.00000000
Ni       5.44421226       5.44421226      -0.00000000
Ni       1.81473742       0.00000000       1.81473742
Ni       3.62947484       1.81473742       1.81473742
Ni       5.44421226       3.62947484       1.81473742
Ni       7.25894968       5.44421226       1.81473742
8
Lattice="1.8147374208134635 3.629474841626927 1.8147374208134635 3.629474841626927 1.7313880990358154e-17 3.629474841626927 7.258949683253854 7.258949683253854 -2.3865241501991196e-18" Properties=species:S:1:pos:R:3 mixing_energy=0.031032005854320754 energy=-36.70152572350551 pbc="T T T"
Cu       0.00000000       0.00000000       0.00000000
Cu       1.81473742       1.81473742      -0.00000000
Ni       3.62947484       3.62947484      -0.00000000
Ni       5.44421226       5.44421226      -0.00000000
Cu       1.81473742       0.00000000       1.81473742
Ni       3.62947484       1.81473742       1.81473742
Ni       5.44421226       3.62947484       1.81473742
Cu       7.25894968       5.44421226       1.81473742
8
Lattice="1.8147374208134635 3.629474841626927 1.8147374208134635 3.629474841626927 1.7313880990358154e-17 3.629474841626927 7.258949683253854 7.258949683253854 -2.3865241501991196e-18" Properties=species:S:1:pos:R:3 mixing_energy=0.03201688997839769 energy=-38.4384405561646 pbc="T T T"
Cu       0.00000000       0.00000000       0.00000000
Cu       1.81473742       1.81473742      -0.00000000
Ni       3.62947484       3.62947484      -0.00000000
Ni       5.44421226       5.44421226      -0.00000000
Cu       1.81473742       0.00000000       1.81473742
Ni       3.62947484       1.81473742       1.81473742
Ni       5.44421226       3.62947484       1.81473742
Ni       7.25894968       5.44421226       1.81473742
8
Lattice="1.8147374208134635 3.629474841626927 1.8147374208134635 3.629474841626927 1.7313880990358154e-17 3.629474841626927 7.258949683253854 7.258949683253854 -2.3865241501991196e-18" Properties=species:S:1:pos:R:3 mixing_energy=0.03735897950917577 energy=-38.395703839918376 pbc="T T T"
Cu       0.00000000       0.00000000       0.00000000
Cu       1.81473742       1.81473742      -0.00000000
Ni       3.62947484       3.62947484      -0.00000000
Ni       5.44421226       5.44421226      -0.00000000
Ni       1.81473742       0.00000000       1.81473742
Ni       3.62947484       1.81473742       1.81473742
Cu       5.44421226       3.62947484       1.81473742
Ni       7.25894968       5.44421226       1.81473742
8
Lattice="1.8147374208134635 3.629474841626927 1.8147374208134635 3.629474841626927 1.7313880990358154e-17 3.629474841626927 7.258949683253854 7.258949683253854 -2.3865241501991196e-18" Properties=species:S:1:pos:R:3 mixing_energy=0.03015170227462871 energy=-40.19815596344645 pbc="T T T"
Cu       0.00000000       0.00000000       0.00000000
Cu       1.81473742       1.81473742      -0.00000000
Ni       3.62947484       3.62947484      -0.00000000
Ni       5.44421226       5.44421226      -0.00000000
Ni       1.81473742       0.00000000       1.81473742
Ni       3.62947484       1.81473742       1.81473742
Ni       5.44421226       3.62947484       1.81473742
Ni       7.25894968       5.44421226       1.81473742
8
Lattice="1.8147374208134635 3.629474841626927 1.8147374208134635 3.629474841626927 1.7313880990358154e-17 3.629474841626927 7.258949683253854 7.258949683253854 -2.3865241501991196e-18" Properties=species:S:1:pos:R:3 mixing_energy=0.038340495180615 energy=-38.38785171454686 pbc="T T T"
Cu       0.00000000       0.00000000       0.00000000
Ni       1.81473742       1.81473742      -0.00000000
Cu       3.62947484       3.62947484      -0.00000000
Ni       5.44421226       5.44421226      -0.00000000
Cu       1.81473742       0.00000000       1.81473742
Ni       3.62947484       1.81473742       1.81473742
Ni       5.44421226       3.62947484       1.81473742
Ni       7.25894968       5.44421226       1.81473742
8
Lattice="1.8147374208134635 3.629474841626927 1.8147374208134635 3.629474841626927 1.7313880990358154e-17 3.629474841626927 7.258949683253854 7.258949683253854 -2.3865241501991196e-18" Properties=species:S:1:pos:R:3 mixing_energy=0.020157381436144206 energy=-42.02290443580603 pbc="T T T"
Cu       0.00000000       0.00000000       0.00000000
Ni       1.81473742       1.81473742      -0.00000000
Ni       3.62947484       3.62947484      -0.00000000
Ni       5.44421226       5.44421226      -0.00000000
Ni       1.81473742       0.00000000       1.81473742
Ni       3.62947484       1.81473742       1.81473742
Ni       5.44421226       3.62947484       1.81473742
Ni       7.25894968       5.44421226       1.81473742
8
Lattice="1.8147374208134635 3.629474841626927 1.8147374208134635 7.258949683253854 3.629474841626927 3.629474841626927 7.258949683253854 7.258949683253854 -2.3865241501991196e-18" Properties=species:S:1:pos:R:3 mixing_energy=0.0035388070747702782 energy=-31.687089596786805 pbc="T T T"
Cu       0.00000000       0.00000000       0.00000000
Cu       1.81473742       1.81473742      -0.00000000
Cu       3.62947484       3.62947484      -0.00000000
Cu       5.44421226       5.44421226      -0.00000000
Cu       3.62947484       1.81473742       1.81473742
Cu       5.44421226       3.62947484       1.81473742
Cu       7.25894968       5.44421226       1.81473742
Ni       9.07368710       7.25894968       1.81473742
8
Lattice="1.8147374208134635 3.629474841626927 1.8147374208134635 7.258949683253854 3.629474841626927 3.629474841626927 7.258949683253854 7.258949683253854 -2.3865241501991196e-18" Properties=species:S:1:pos:R:3 mixing_energy=0.010619563334124171 energy=-33.37523745236368 pbc="T T T"
Cu       0.00000000       0.00000000       0.00000000
Cu       1.81473742       1.81473742      -0.00000000
Cu       3.62947484       3.62947484      -0.00000000
Cu       5.44421226       5.44421226      -0.00000000
Cu       3.62947484       1.81473742       1.81473742
Cu       5.44421226       3.62947484       1.81473742
Ni       7.25894968       5.44421226       1.81473742
Ni       9.07368710       7.25894968       1.81473742
8
Lattice="1.8147374208134635 3.629474841626927 1.8147374208134635 7.258949683253854 3.629474841626927 3.629474841626927 7.258949683253854 7.258949683253854 -2.3865241501991196e-18" Properties=species:S:1:pos:R:3 mixing_energy=0.017835304295052534 energy=-35.06230543032795 pbc="T T T"
Cu       0.00000000       0.00000000       0.00000000
Cu       1.81473742       1.81473742      -0.00000000
Cu       3.62947484       3.62947484      -0.00000000
Cu       5.44421226       5.44421226      -0.00000000
Cu       3.62947484       1.81473742       1.81473742
Ni       5.44421226       3.62947484       1.81473742
Ni       7.25894968       5.44421226       1.81473742
Ni       9.07368710       7.25894968       1.81473742
8
Lattice="1.8147374208134635 3.629474841626927 1.8147374208134635 7.258949683253854 3.629474841626927 3.629474841626927 7.258949683253854 7.258949683253854 -2.3865241501991196e-18" Properties=species:S:1:pos:R:3 mixing_energy=0.01258887525842467 energy=-33.35948295696927 pbc="T T T"
Cu       0.00000000       0.00000000       0.00000000
Cu       1.81473742       1.81473742      -0.00000000
Cu       3.62947484       3.62947484      -0.00000000
Ni       5.44421226       5.44421226      -0.00000000
Cu       3.62947484       1.81473742       1.81473742
Cu       5.44421226       3.62947484       1.81473742
Ni       7.25894968       5.44421226       1.81473742
Cu       9.07368710       7.25894968       1.81473742
8
Lattice="1.8147374208134635 3.629474841626927 1.8147374208134635 7.258949683253854 3.629474841626927 3.629474841626927 7.258949683253854 7.258949683253854 -2.3865241501991196e-18" Properties=species:S:1:pos:R:3 mixing_energy=0.02200720119320776 energy=-35.02893025514271 pbc="T T T"
Cu       0.00000000       0.00000000       0.00000000
Cu       1.81473742       1.81473742      -0.00000000
Cu       3.62947484       3.62947484      -0.00000000
Ni       5.44421226       5.44421226      -0.00000000
Cu       3.62947484       1.81473742       1.81473742
Cu       5.44421226       3.62947484       1.81473742
Ni       7.25894968       5.44421226       1.81473742
Ni       9.07368710       7.25894968       1.81473742
8
Lattice="1.8147374208134635 3.629474841626927 1.8147374208134635 7.258949683253854 3.629474841626927 3.629474841626927 7.258949683253854 7.258949683253854 -2.3865241501991196e-18" Properties=species:S:1:pos:R:3 mixing_energy=0.01863553364132775 energy=-35.05590359555775 pbc="T T T"
Cu       0.00000000       0.00000000       0.00000000
Cu       1.81473742       1.81473742      -0.00000000
Cu       3.62947484       3.62947484      -0.00000000
Ni       5.44421226       5.44421226      -0.00000000
Cu       3.62947484       1.81473742       1.81473742
Ni       5.44421226       3.62947484       1.81473742
Cu       7.25894968       5.44421226       1.81473742
Ni       9.07368710       7.25894968       1.81473742
8
Lattice="1.8147374208134635 3.629474841626927 1.8147374208134635 7.258949683253854 3.629474841626927 3.629474841626927 7.258949683253854 7.258949683253854 -2.3865241501991196e-18" Properties=species:S:1:pos:R:3 mixing_energy=0.026770935535922913 energy=-36.735614286052694 pbc="T T T"
Cu       0.00000000       0.00000000       0.00000000
Cu       1.81473742       1.81473742      -0.00000000
Cu       3.62947484       3.62947484      -0.00000000
Ni       5.44421226       5.44421226      -0.00000000
Cu       3.62947484       1.81473742       1.81473742
Ni       5.44421226       3.62947484       1.81473742
Ni       7.25894968       5.44421226       1.81473742
Ni       9.07368710       7.25894968       1.81473742
8
Lattice="1.8147374208134635 3.629474841626927 1.8147374208134635 7.258949683253854 3.629474841626927 3.629474841626927 7.258949683253854 7.258949683253854 -2.3865241501991196e-18" Properties=species:S:1:pos:R:3 mixing_energy=0.02465302344604625 energy=-35.00776367712 pbc="T T T"
Cu       0.00000000       0.00000000       0.00000000
Cu       1.81473742       1.81473742      -0.00000000
Cu       3.62947484       3.62947484      -0.00000000
Ni       5.44421226       5.44421226      -0.00000000
Ni       3.62947484       1.81473742       1.81473742
Cu       5.44421226       3.62947484       1.81473742
Ni       7.25894968       5.44421226       1.81473742
Cu       9.07368710       7.25894968       1.81473742
8
Lattice="1.8147374208134635 3.629474841626927 1.8147374208134635 7.258949683253854 3.629474841626927 3.629474841626927 7.258949683253854 7.258949683253854 -2.3865241501991196e-18" Properties=species:S:1:pos:R:3 mixing_energy=0.031124003281246093 energy=-36.70078974409011 pbc="T T T"
Cu       0.00000000       0.00000000       0.00000000
Cu       1.81473742       1.81473742      -0.00000000
Cu       3.62947484       3.62947484      -0.00000000
Ni       5.44421226       5.44421226      -0.00000000
Ni       3.62947484       1.81473742       1.81473742
Cu       5.44421226       3.62947484       1.81473742
Ni       7.25894968       5.44421226       1.81473742
Ni       9.07368710       7.25894968       1.81473742
8
Lattice="1.8147374208134635 3.629474841626927 1.8147374208134635 7.258949683253854 3.629474841626927 3.629474841626927 7.258949683253854 7.258949683253854 -2.3865241501991196e-18" Properties=species:S:1:pos:R:3 mixing_energy=0.029535679137487225 energy=-38.458290242891884 pbc="T T T"
Cu       0.00000000       0.00000000       0.00000000
Cu       1.81473742       1.81473742      -0.00000000
Cu       3.62947484       3.62947484      -0.00000000
Ni       5.44421226       5.44421226      -0.00000000
Ni       3.62947484       1.81473742       1.81473742
Ni       5.44421226       3.62947484       1.81473742
Ni       7.25894968       5.44421226       1.81473742
Ni       9.07368710       7.25894968       1.81473742
8
Lattice="1.8147374208134635 3.629474841626927 1.8147374208134635 7.258949683253854 3.629474841626927 3.629474841626927 7.258949683253854 7.258949683253854 -2.3865241501991196e-18" Properties=species:S:1:pos:R:3 mixing_energy=0.03095395813973445 energy=-36.7021501052222 pbc="T T T"
Cu       0.00000000       0.00000000       0.00000000
Cu       1.81473742       1.81473742      -0.00000000
Ni       3.62947484       3.62947484      -0.00000000
Ni       5.44421226       5.44421226      -0.00000000
Cu       3.62947484       1.81473742       1.81473742
Ni       5.44421226       3.62947484       1.81473742
Cu       7.25894968       5.44421226       1.81473742
Ni       9.07368710       7.25894968       1.81473742
8
Lattice="1.8147374208134635 3.629474841626927 1.8147374208134635 7.258949683253854 3.629474841626927 3.629474841626927 7.258949683253854 7.258949683253854 -2.3865241501991196e-18" Properties=species:S:1:pos:R:3 mixing_energy=0.03168401158059764 energy=-36.6963096776953 pbc="T T T"
Cu       0.00000000       0.00000000       0.00000000
Cu       1.81473742       1.81473742      -0.00000000
Ni       3.62947484       3.62947484      -0.00000000
Ni       5.44421226       5.44421226      -0.00000000
Cu       3.62947484       1.81473742       1.81473742
Ni       5.44421226       3.62947484       1.81473742
Ni       7.25894968       5.44421226       1.81473742
Cu       9.07368710       7.25894968       1.81473742
8
Lattice="1.8147374208134635 3.629474841626927 1.8147374208134635 7.258949683253854 3.629474841626927 3.629474841626927 7.258949683253854 7.258949683253854 -2.3865241501991196e-18" Properties=species:S:1:pos:R:3 mixing_energy=0.034677599089455224 energy=-38.41715488327614 pbc="T T T"
Cu       0.00000000       0.00000000       0.00000000
Cu       1.81473742       1.81473742      -0.00000000
Ni       3.62947484       3.62947484      -0.00000000
Ni       5.44421226       5.44421226      -0.00000000
Cu       3.62947484       1.81473742       1.81473742
Ni       5.44421226       3.62947484       1.81473742
Ni       7.25894968       5.44421226       1.81473742
Ni       9.07368710       7.25894968       1.81473742
8
Lattice="1.8147374208134635 3.629474841626927 1.8147374208134635 7.258949683253854 3.629474841626927 3.629474841626927 7.258949683253854 7.258949683253854 -2.3865241501991196e-18" Properties=species:S:1:pos:R:3 mixing_energy=0.029514856762504316 energy=-40.20325072754345 pbc="T T T"
Cu       0.00000000       0.00000000       0.00000000
Cu       1.81473742       1.81473742      -0.00000000
Ni       3.62947484       3.62947484      -0.00000000
Ni       5.44421226       5.44421226      -0.00000000
Ni       3.62947484       1.81473742       1.81473742
Ni       5.44421226       3.62947484       1.81473742
Ni       7.25894968       5.44421226       1.81473742
Ni       9.07368710       7.25894968       1.81473742
8
Lattice="1.8147374208134635 3.629474841626927 1.8147374208134635 7.258949683253854 3.629474841626927 3.629474841626927 7.258949683253854 7.258949683253854 -2.3865241501991196e-18" Properties=species:S:1:pos:R:3 mixing_energy=0.02897924750639147 energy=-38.46274169594065 pbc="T T T"
Cu       0.00000000       0.00000000       0.00000000
Ni       1.81473742       1.81473742      -0.00000000
Cu       3.62947484       3.62947484      -0.00000000
Ni       5.44421226       5.44421226      -0.00000000
Cu       3.62947484       1.81473742       1.81473742
Ni       5.44421226       3.62947484       1.81473742
Ni       7.25894968       5.44421226       1.81473742
Ni       9.07368710       7.25894968       1.81473742
8
Lattice="1.8147374208134635 3.629474841626927 1.8147374208134635 7.258949683253854 3.629474841626927 3.629474841626927 7.258949683253854 7.258949683253854 -2.3865241501991196e-18" Properties=species:S:1:pos:R:3 mixing_energy=0.03892077919875492 energy=-38.38320944240174 pbc="T T T"
Cu       0.00000000       0.00000000       0.00000000
Ni       1.81473742       1.81473742      -0.00000000
Cu       3.62947484       3.62947484      -0.00000000
Ni       5.44421226       5.44421226      -0.00000000
Ni       3.62947484       1.81473742       1.81473742
Cu       5.44421226       3.62947484       1.81473742
Ni       7.25894968       5.44421226       1.81473742
Ni       9.07368710       7.25894968       1.81473742
8
Lattice="1.8147374208134635 3.629474841626927 1.8147374208134635 7.258949683253854 3.629474841626927 3.629474841626927 7.258949683253854 7.258949683253854 -2.3865241501991196e-18" Properties=species:S:1:pos:R:3 mixing_energy=0.03439172776718813 energy=-40.16423575950598 pbc="T T T"
Cu       0.00000000       0.00000000       0.00000000
Ni       1.81473742       1.81473742      -0.00000000
Ni       3.62947484       3.62947484      -0.00000000
Ni       5.44421226       5.44421226      -0.00000000
Ni       3.62947484       1.81473742       1.81473742
Cu       5.44421226       3.62947484       1.81473742
Ni       7.25894968       5.44421226       1.81473742
Ni       9.07368710       7.25894968       1.81473742
8
Lattice="1.8147374208134635 3.629474841626927 1.8147374208134635 7.258949683253854 3.629474841626927 3.629474841626927 7.258949683253854 7.258949683253854 -2.3865241501991196e-18" Properties=species:S:1:pos:R:3 mixing_energy=0.019656428451392927 energy=-42.026912059684044 pbc="T T T"
Cu       0.00000000       0.00000000       0.00000000
Ni       1.81473742       1.81473742      -0.00000000
Ni       3.62947484       3.62947484      -0.00000000
Ni       5.44421226       5.44421226      -0.00000000
Ni       3.62947484       1.81473742       1.81473742
Ni       5.44421226       3.62947484       1.81473742
Ni       7.25894968       5.44421226       1.81473742
Ni       9.07368710       7.25894968       1.81473742
8
Lattice="3.629474841626927 3.629474841626927 3.629474841626927 3.629474841626927 1.7313880990358154e-17 3.629474841626927 7.258949683253854 7.258949683253854 -2.3865241501991196e-18" Properties=species:S:1:pos:R:3 mixing_energy=0.0036906160962891787 energy=-31.685875124614654 pbc="T T T"
Cu       0.00000000       0.00000000       0.00000000
Cu       1.81473742       1.81473742      -0.00000000
Cu       3.62947484       3.62947484      -0.00000000
Cu       5.44421226       5.44421226      -0.00000000
Cu       1.81473742       0.00000000       1.81473742
Cu       3.62947484       1.81473742       1.81473742
Cu       5.44421226       3.62947484       1.81473742
Ni       7.25894968       5.44421226       1.81473742
8
Lattice="3.629474841626927 3.629474841626927 3.629474841626927 3.629474841626927 1.7313880990358154e-17 3.629474841626927 7.258949683253854 7.258949683253854 -2.3865241501991196e-18" Properties=species:S:1:pos:R:3 mixing_energy=0.012274727068692703 energy=-33.36199614248713 pbc="T T T"
Cu       0.00000000       0.00000000       0.00000000
Cu       1.81473742       1.81473742      -0.00000000
Cu       3.62947484       3.62947484      -0.00000000
Cu       5.44421226       5.44421226      -0.00000000
Cu       1.81473742       0.00000000       1.81473742
Cu       3.62947484       1.81473742       1.81473742
Ni       5.44421226       3.62947484       1.81473742
Ni       7.25894968       5.44421226       1.81473742
8
Lattice="3.629474841626927 3.629474841626927 3.629474841626927 3.629474841626927 1.7313880990358154e-17 3.629474841626927 7.258949683253854 7.258949683253854 -2.3865241501991196e-18" Properties=species:S:1:pos:R:3 mixing_energy=0.025214208736472177 energy=-35.003274194796596 pbc="T T T"
Cu       0.00000000       0.00000000       0.00000000
Cu       1.81473742       1.81473742      -0.00000000
Cu       3.62947484       3.62947484      -0.00000000
Cu       5.44421226       5.44421226      -0.00000000
Cu       1.81473742       0.00000000       1.81473742
Ni       3.62947484       1.81473742       1.81473742
Ni       5.44421226       3.62947484       1.81473742
Ni       7.25894968       5.44421226       1.81473742
8
Lattice="3.629474841626927 3.629474841626927 3.629474841626927 3.629474841626927 1.7313880990358154e-17 3.629474841626927 7.258949683253854 7.258949683253854 -2.3865241501991196e-18" Properties=species:S:1:pos:R:3 mixing_energy=0.02113795553236608 energy=-35.035884220429445 pbc="T T T"
Cu       0.00000000       0.00000000       0.00000000
Cu       1.81473742       1.81473742      -0.00000000
Cu       3.62947484       3.62947484      -0.00000000
Ni       5.44421226       5.44421226      -0.00000000
Cu       1.81473742       0.00000000       1.81473742
Cu       3.62947484       1.81473742       1.81473742
Ni       5.44421226       3.62947484       1.81473742
Ni       7.25894968       5.44421226       1.81473742
8
Lattice="3.629474841626927 3.629474841626927 3.629474841626927 3.629474841626927 1.7313880990358154e-17 3.629474841626927 7.258949683253854 7.258949683253854 -2.3865241501991196e-18" Properties=species:S:1:pos:R:3 mixing_energy=0.025075364961629543 energy=-35.00438494499534 pbc="T T T"
Cu       0.00000000       0.00000000       0.00000000
Cu       1.81473742       1.81473742      -0.00000000
Cu       3.62947484       3.62947484      -0.00000000
Ni       5.44421226       5.44421226      -0.00000000
Cu       1.81473742       0.00000000       1.81473742
Ni       3.62947484       1.81473742       1.81473742
Cu       5.44421226       3.62947484       1.81473742
Ni       7.25894968       5.44421226       1.81473742
8
Lattice="3.629474841626927 3.629474841626927 3.629474841626927 3.629474841626927 1.7313880990358154e-17 3.629474841626927 7.258949683253854 7.258949683253854 -2.3865241501991196e-18" Properties=species:S:1:pos:R:3 mixing_energy=0.032696422806805625 energy=-36.68821038788563 pbc="T T T"
Cu       0.00000000       0.00000000       0.00000000
Cu       1.81473742       1.81473742      -0.00000000
Cu       3.62947484       3.62947484      -0.00000000
Ni       5.44421226       5.44421226      -0.00000000
Cu       1.81473742       0.00000000       1.81473742
Ni       3.62947484       1.81473742       1.81473742
Ni       5.44421226       3.62947484       1.81473742
Ni       7.25894968       5.44421226       1.81473742
8
Lattice="3.629474841626927 3.629474841626927 3.629474841626927 3.629474841626927 1.7313880990358154e-17 3.629474841626927 7.258949683253854 7.258949683253854 -2.3865241501991196e-18" Properties=species:S:1:pos:R:3 mixing_energy=0.03235219043560411 energy=-36.690964246855245 pbc="T T T"
Cu       0.00000000       0.00000000       0.00000000
Cu       1.81473742       1.81473742      -0.00000000
Cu       3.62947484       3.62947484      -0.00000000
Ni       5.44421226       5.44421226      -0.00000000
Ni       1.81473742       0.00000000       1.81473742
Cu       3.62947484       1.81473742       1.81473742
Ni       5.44421226       3.62947484       1.81473742
Ni       7.25894968       5.44421226       1.81473742
8
Lattice="3.629474841626927 3.629474841626927 3.629474841626927 3.629474841626927 1.7313880990358154e-17 3.629474841626927 7.258949683253854 7.258949683253854 -2.3865241501991196e-18" Properties=species:S:1:pos:R:3 mixing_energy=0.0395862143269885 energy=-38.377885961375874 pbc="T T T"
Cu       0.00000000       0.00000000       0.00000000
Cu       1.81473742       1.81473742      -0.00000000
Cu       3.62947484       3.62947484      -0.00000000
Ni       5.44421226       5.44421226      -0.00000000
Ni       1.81473742       0.00000000       1.81473742
Ni       3.62947484       1.81473742       1.81473742
Ni       5.44421226       3.62947484       1.81473742
Ni       7.25894968       5.44421226       1.81473742
8
Lattice="3.629474841626927 3.629474841626927 3.629474841626927 3.629474841626927 1.7313880990358154e-17 3.629474841626927 7.258949683253854 7.258949683253854 -2.3865241501991196e-18" Properties=species:S:1:pos:R:3 mixing_energy=0.027100444359811515 energy=-36.732978215461586 pbc="T T T"
Cu       0.00000000       0.00000000       0.00000000
Cu       1.81473742       1.81473742      -0.00000000
Ni       3.62947484       3.62947484      -0.00000000
Ni       5.44421226       5.44421226      -0.00000000
Cu       1.81473742       0.00000000       1.81473742
Ni       3.62947484       1.81473742       1.81473742
Ni       5.44421226       3.62947484       1.81473742
Cu       7.25894968       5.44421226       1.81473742
8
Lattice="3.629474841626927 3.629474841626927 3.629474841626927 3.629474841626927 1.7313880990358154e-17 3.629474841626927 7.258949683253854 7.258949683253854 -2.3865241501991196e-18" Properties=species:S:1:pos:R:3 mixing_energy=0.03255831422107347 energy=-38.434109162223194 pbc="T T T"
Cu       0.00000000       0.00000000       0.00000000
Cu       1.81473742       1.81473742      -0.00000000
Ni       3.62947484       3.62947484      -0.00000000
Ni       5.44421226       5.44421226      -0.00000000
Cu       1.81473742       0.00000000       1.81473742
Ni       3.62947484       1.81473742       1.81473742
Ni       5.44421226       3.62947484       1.81473742
Ni       7.25894968       5.44421226       1.81473742
8
Lattice="3.629474841626927 3.629474841626927 3.629474841626927 3.629474841626927 1.7313880990358154e-17 3.629474841626927 7.258949683253854 7.258949683253854 -2.3865241501991196e-18" Properties=species:S:1:pos:R:3 mixing_energy=0.03127028726624648 energy=-40.18920728351351 pbc="T T T"
Cu       0.00000000       0.00000000       0.00000000
Cu       1.81473742       1.81473742      -0.00000000
Ni       3.62947484       3.62947484      -0.00000000
Ni       5.44421226       5.44421226      -0.00000000
Ni       1.81473742       0.00000000       1.81473742
Ni       3.62947484       1.81473742       1.81473742
Ni       5.44421226       3.62947484       1.81473742
Ni       7.25894968       5.44421226       1.81473742
8
Lattice="3.629474841626927 3.629474841626927 3.629474841626927 3.629474841626927 1.7313880990358154e-17 3.629474841626927 7.258949683253854 7.258949683253854 -2.3865241501991196e-18" Properties=species:S:1:pos:R:3 mixing_energy=0.04009470730573694 energy=-38.37381801754589 pbc="T T T"
Cu       0.00000000       0.00000000       0.00000000
Ni       1.81473742       1.81473742      -0.00000000
Cu       3.62947484       3.62947484      -0.00000000
Ni       5.44421226       5.44421226      -0.00000000
Cu       1.81473742       0.00000000       1.81473742
Ni       3.62947484       1.81473742       1.81473742
Ni       5.44421226       3.62947484       1.81473742
Ni       7.25894968       5.44421226       1.81473742
8
Lattice="3.629474841626927 3.629474841626927 3.629474841626927 3.629474841626927 1.7313880990358154e-17 3.629474841626927 7.258949683253854 7.258949683253854 -2.3865241501991196e-18" Properties=species:S:1:pos:R:3 mixing_energy=0.020759480349552106 energy=-42.01808764449877 pbc="T T T"
Cu       0.00000000       0.00000000       0.00000000
Ni       1.81473742       1.81473742      -0.00000000
Ni       3.62947484       3.62947484      -0.00000000
Ni       5.44421226       5.44421226      -0.00000000
Ni       1.81473742       0.00000000       1.81473742
Ni       3.62947484       1.81473742       1.81473742
Ni       5.44421226       3.62947484       1.81473742
Ni       7.25894968       5.44421226       1.81473742
8
Lattice="7.258949683253854 7.258949683253854 3.629474841626927 3.629474841626927 1.7313880990358154e-17 3.629474841626927 7.258949683253854 7.258949683253854 -2.3865241501991196e-18" Properties=species:S:1:pos:R:3 mixing_energy=0.004194739128075997 energy=-31.68184214036036 pbc="T T T"
Cu       0.00000000       0.00000000       0.00000000
Cu       1.81473742       1.81473742      -0.00000000
Cu       3.62947484       3.62947484      -0.00000000
Cu       5.44421226       5.44421226      -0.00000000
Cu       1.81473742       0.00000000       1.81473742
Cu       3.62947484       1.81473742       1.81473742
Cu       5.44421226       3.62947484       1.81473742
Ni       7.25894968       5.44421226       1.81473742
8
Lattice="7.258949683253854 7.258949683253854 3.629474841626927 3.629474841626927 1.7313880990358154e-17 3.629474841626927 7.258949683253854 7.258949683253854 -2.3865241501991196e-18" Properties=species:S:1:pos:R:3 mixing_energy=0.01299339954377543 energy=-33.35624676268647 pbc="T T T"
Cu       0.00000000       0.00000000       0.00000000
Cu       1.81473742       1.81473742      -0.00000000
Cu       3.62947484       3.62947484      -0.00000000
Cu       5.44421226       5.44421226      -0.00000000
Cu       1.81473742       0.00000000       1.81473742
Cu       3.62947484       1.81473742       1.81473742
Ni       5.44421226       3.62947484       1.81473742
Ni       7.25894968       5.44421226       1.81473742
8
Lattice="7.258949683253854 7.258949683253854 3.629474841626927 3.629474841626927 1.7313880990358154e-17 3.629474841626927 7.258949683253854 7.258949683253854 -2.3865241501991196e-18" Properties=species:S:1:pos:R:3 mixing_energy=0.025381207101219605 energy=-35.00193820787862 pbc="T T T"
Cu       0.00000000       0.00000000       0.00000000
Cu       1.81473742       1.81473742      -0.00000000
Cu       3.62947484       3.62947484      -0.00000000
Cu       5.44421226       5.44421226      -0.00000000
Cu       1.81473742       0.00000000       1.81473742
Ni       3.62947484       1.81473742       1.81473742
Ni       5.44421226       3.62947484       1.81473742
Ni       7.25894968       5.44421226       1.81473742
8
Lattice="7.258949683253854 7.258949683253854 3.629474841626927 3.629474841626927 1.7313880990358154e-17 3.629474841626927 7.258949683253854 7.258949683253854 -2.3865241501991196e-18" Properties=species:S:1:pos:R:3 mixing_energy=0.017876815729783058 energy=-35.06197333885011 pbc="T T T"
Cu       0.00000000       0.00000000       0.00000000
Cu       1.81473742       1.81473742      -0.00000000
Cu       3.62947484       3.62947484      -0.00000000
Ni       5.44421226       5.44421226      -0.00000000
Cu       1.81473742       0.00000000       1.81473742
Cu       3.62947484       1.81473742       1.81473742
Ni       5.44421226       3.62947484       1.81473742
Ni       7.25894968       5.44421226       1.81473742
8
Lattice="7.258949683253854 7.258949683253854 3.629474841626927 3.629474841626927 1.7313880990358154e-17 3.629474841626927 7.258949683253854 7.258949683253854 -2.3865241501991196e-18" Properties=species:S:1:pos:R:3 mixing_energy=0.025277208775130955 energy=-35.002770194487326 pbc="T T T"
Cu       0.00000000       0.00000000       0.00000000
Cu       1.81473742       1.81473742      -0.00000000
Cu       3.62947484       3.62947484      -0.00000000
Ni       5.44421226       5.44421226      -0.00000000
Cu       1.81473742       0.00000000       1.81473742
Ni       3.62947484       1.81473742       1.81473742
Cu       5.44421226       3.62947484       1.81473742
Ni       7.25894968       5.44421226       1.81473742
8
Lattice="7.258949683253854 7.258949683253854 3.629474841626927 3.629474841626927 1.7313880990358154e-17 3.629474841626927 7.258949683253854 7.258949683253854 -2.3865241501991196e-18" Properties=species:S:1:pos:R:3 mixing_energy=0.025444302494837867 energy=-35.00143344472967 pbc="T T T"
Cu       0.00000000       0.00000000       0.00000000
Cu       1.81473742       1.81473742      -0.00000000
Cu       3.62947484       3.62947484      -0.00000000
Ni       5.44421226       5.44421226      -0.00000000
Cu       1.81473742       0.00000000       1.81473742
Ni       3.62947484       1.81473742       1.81473742
Ni       5.44421226       3.62947484       1.81473742
Cu       7.25894968       5.44421226       1.81473742
8
Lattice="7.258949683253854 7.258949683253854 3.629474841626927 3.629474841626927 1.7313880990358154e-17 3.629474841626927 7.258949683253854 7.258949683253854 -2.3865241501991196e-18" Properties=species:S:1:pos:R:3 mixing_energy=0.03230083373502035 energy=-36.691375100459915 pbc="T T T"
Cu       0.00000000       0.00000000       0.00000000
Cu       1.81473742       1.81473742      -0.00000000
Cu       3.62947484       3.62947484      -0.00000000
Ni       5.44421226       5.44421226      -0.00000000
Cu       1.81473742       0.00000000       1.81473742
Ni       3.62947484       1.81473742       1.81473742
Ni       5.44421226       3.62947484       1.81473742
Ni       7.25894968       5.44421226       1.81473742
8
Lattice="7.258949683253854 7.258949683253854 3.629474841626927 3.629474841626927 1.7313880990358154e-17 3.629474841626927 7.258949683253854 7.258949683253854 -2.3865241501991196e-18" Properties=species:S:1:pos:R:3 mixing_energy=0.027755483604397835 energy=-36.727737901504895 pbc="T T T"
Cu       0.00000000       0.00000000       0.00000000
Cu       1.81473742       1.81473742      -0.00000000
Cu       3.62947484       3.62947484      -0.00000000
Ni       5.44421226       5.44421226      -0.00000000
Ni       1.81473742       0.00000000       1.81473742
Cu       3.62947484       1.81473742       1.81473742
Ni       5.44421226       3.62947484       1.81473742
Ni       7.25894968       5.44421226       1.81473742
8
Lattice="7.258949683253854 7.258949683253854 3.629474841626927 3.629474841626927 1.7313880990358154e-17 3.629474841626927 7.258949683253854 7.258949683253854 -2.3865241501991196e-18" Properties=species:S:1:pos:R:3 mixing_energy=0.037905080606481345 energy=-36.64654112548823 pbc="T T T"
Cu       0.00000000       0.00000000       0.00000000
Cu       1.81473742       1.81473742      -0.00000000
Cu       3.62947484       3.62947484      -0.00000000
Ni       5.44421226       5.44421226      -0.00000000
Ni       1.81473742       0.00000000       1.81473742
Ni       3.62947484       1.81473742       1.81473742
Ni       5.44421226       3.62947484       1.81473742
Cu       7.25894968       5.44421226       1.81473742
8
Lattice="7.258949683253854 7.258949683253854 3.629474841626927 3.629474841626927 1.7313880990358154e-17 3.629474841626927 7.258949683253854 7.258949683253854 -2.3865241501991196e-18" Properties=species:S:1:pos:R:3 mixing_energy=0.039746895542930094 energy=-38.37660051164834 pbc="T T T"
Cu       0.00000000       0.00000000       0.00000000
Cu       1.81473742       1.81473742      -0.00000000
Cu       3.62947484       3.62947484      -0.00000000
Ni       5.44421226       5.44421226      -0.00000000
Ni       1.81473742       0.00000000       1.81473742
Ni       3.62947484       1.81473742       1.81473742
Ni       5.44421226       3.62947484       1.81473742
Ni       7.25894968       5.44421226       1.81473742
8
Lattice="7.258949683253854 7.258949683253854 3.629474841626927 3.629474841626927 1.7313880990358154e-17 3.629474841626927 7.258949683253854 7.258949683253854 -2.3865241501991196e-18" Properties=species:S:1:pos:R:3 mixing_energy=0.02715990084682529 energy=-36.732502563565475 pbc="T T T"
Cu       0.00000000       0.00000000       0.00000000
Cu       1.81473742       1.81473742      -0.00000000
Ni       3.62947484       3.62947484      -0.00000000
Ni       5.44421226       5.44421226      -0.00000000
Cu       1.81473742       0.00000000       1.81473742
Ni       3.62947484       1.81473742       1.81473742
Ni       5.44421226       3.62947484       1.81473742
Cu       7.25894968       5.44421226       1.81473742
8
Lattice="7.258949683253854 7.258949683253854 3.629474841626927 3.629474841626927 1.7313880990358154e-17 3.629474841626927 7.258949683253854 7.258949683253854 -2.3865241501991196e-18" Properties=species:S:1:pos:R:3 mixing_energy=0.02628424081632419 energy=-38.48430174946119 pbc="T T T"
Cu       0.00000000       0.00000000       0.00000000
Cu       1.81473742       1.81473742      -0.00000000
Ni       3.62947484       3.62947484      -0.00000000
Ni       5.44421226       5.44421226      -0.00000000
Cu       1.81473742       0.00000000       1.81473742
Ni       3.62947484       1.81473742       1.81473742
Ni       5.44421226       3.62947484       1.81473742
Ni       7.25894968       5.44421226       1.81473742
8
Lattice="7.258949683253854 7.258949683253854 3.629474841626927 3.629474841626927 1.7313880990358154e-17 3.629474841626927 7.258949683253854 7.258949683253854 -2.3865241501991196e-18" Properties=species:S:1:pos:R:3 mixing_energy=0.03824879394547276 energy=-38.388585324428 pbc="T T T"
Cu       0.00000000       0.00000000       0.00000000
Cu       1.81473742       1.81473742      -0.00000000
Ni       3.62947484       3.62947484      -0.00000000
Ni       5.44421226       5.44421226      -0.00000000
Ni       1.81473742       0.00000000       1.81473742
Ni       3.62947484       1.81473742       1.81473742
Cu       5.44421226       3.62947484       1.81473742
Ni       7.25894968       5.44421226       1.81473742
8
Lattice="7.258949683253854 7.258949683253854 3.629474841626927 3.629474841626927 1.7313880990358154e-17 3.629474841626927 7.258949683253854 7.258949683253854 -2.3865241501991196e-18" Properties=species:S:1:pos:R:3 mixing_energy=0.03131663004286178 energy=-40.18883654130059 pbc="T T T"
Cu       0.00000000       0.00000000       0.00000000
Cu       1.81473742       1.81473742      -0.00000000
Ni       3.62947484       3.62947484      -0.00000000
Ni       5.44421226       5.44421226      -0.00000000
Ni       1.81473742       0.00000000       1.81473742
Ni       3.62947484       1.81473742       1.81473742
Ni       5.44421226       3.62947484       1.81473742
Ni       7.25894968       5.44421226       1.81473742
8
Lattice="7.258949683253854 7.258949683253854 3.629474841626927 3.629474841626927 1.7313880990358154e-17 3.629474841626927 7.258949683253854 7.258949683253854 -2.3865241501991196e-18" Properties=species:S:1:pos:R:3 mixing_energy=0.03902148317960963 energy=-38.382403810554905 pbc="T T T"
Cu       0.00000000       0.00000000       0.00000000
Ni       1.81473742       1.81473742      -0.00000000
Cu       3.62947484       3.62947484      -0.00000000
Ni       5.44421226       5.44421226      -0.00000000
Cu       1.81473742       0.00000000       1.81473742
Ni       3.62947484       1.81473742       1.81473742
Ni       5.44421226       3.62947484       1.81473742
Ni       7.25894968       5.44421226       1.81473742
8
Lattice="7.258949683253854 7.258949683253854 3.629474841626927 3.629474841626927 1.7313880990358154e-17 3.629474841626927 7.258949683253854 7.258949683253854 -2.3865241501991196e-18" Properties=species:S:1:pos:R:3 mixing_energy=0.0206839750613117 energy=-42.0186916868047 pbc="T T T"
Cu       0.00000000       0.00000000       0.00000000
Ni       1.81473742       1.81473742      -0.00000000
Ni       3.62947484       3.62947484      -0.00000000
Ni       5.44421226       5.44421226      -0.00000000
Ni       1.81473742       0.00000000       1.81473742
Ni       3.62947484       1.81473742       1.81473742
Ni       5.44421226       3.62947484       1.81473742
Ni       7.25894968       5.44421226       1.81473742
8
Lattice="3.618234740388145e-18 3.629474841626927 3.629474841626927 3.629474841626927 1.7313880990358154e-17 3.629474841626927 3.629474841626927 3.629474841626927 -1.1932620750995598e-18" Properties=species:S:1:pos:R:3 mixing_energy=0.003463034921192043 energy=-31.68769577401543 pbc="T T T"
Cu       0.00000000       0.00000000       0.00000000
Cu       1.81473742       1.81473742      -0.00000000
Cu       1.81473742       0.00000000       1.81473742
Cu       3.62947484       1.81473742       1.81473742
Cu       0.00000000       1.81473742       1.81473742
Cu       1.81473742       3.62947484       1.81473742
Cu       1.81473742       1.81473742       3.62947484
Ni       3.62947484       3.62947484       3.62947484
8
Lattice="3.618234740388145e-18 3.629474841626927 3.629474841626927 3.629474841626927 1.7313880990358154e-17 3.629474841626927 3.629474841626927 3.629474841626927 -1.1932620750995598e-18" Properties=species:S:1:pos:R:3 mixing_energy=0.01783296339801188 energy=-35.06232415750428 pbc="T T T"
Cu       0.00000000       0.00000000       0.00000000
Cu       1.81473742       1.81473742      -0.00000000
Cu       1.81473742       0.00000000       1.81473742
Cu       3.62947484       1.81473742       1.81473742
Cu       0.00000000       1.81473742       1.81473742
Ni       1.81473742       3.62947484       1.81473742
Ni       1.81473742       1.81473742       3.62947484
Ni       3.62947484       3.62947484       3.62947484
8
Lattice="3.618234740388145e-18 3.629474841626927 3.629474841626927 3.629474841626927 1.7313880990358154e-17 3.629474841626927 3.629474841626927 3.629474841626927 -1.1932620750995598e-18" Properties=species:S:1:pos:R:3 mixing_energy=0.021578991719760854 energy=-36.77714983658199 pbc="T T T"
Cu       0.00000000       0.00000000       0.00000000
Cu       1.81473742       1.81473742      -0.00000000
Cu       1.81473742       0.00000000       1.81473742
Ni       3.62947484       1.81473742       1.81473742
Cu       0.00000000       1.81473742       1.81473742
Ni       1.81473742       3.62947484       1.81473742
Ni       1.81473742       1.81473742       3.62947484
Ni       3.62947484       3.62947484       3.62947484
8
Lattice="3.618234740388145e-18 3.629474841626927 3.629474841626927 3.629474841626927 1.7313880990358154e-17 3.629474841626927 3.629474841626927 3.629474841626927 -1.1932620750995598e-18" Properties=species:S:1:pos:R:3 mixing_energy=0.023910362085429515 energy=-35.01370496800494 pbc="T T T"
Cu       0.00000000       0.00000000       0.00000000
Cu       1.81473742       1.81473742      -0.00000000
Cu       1.81473742       0.00000000       1.81473742
Ni       3.62947484       1.81473742       1.81473742
Ni       0.00000000       1.81473742       1.81473742
Cu       1.81473742       3.62947484       1.81473742
Cu       1.81473742       1.81473742       3.62947484
Ni       3.62947484       3.62947484       3.62947484
8
Lattice="3.618234740388145e-18 3.629474841626927 3.629474841626927 3.629474841626927 1.7313880990358154e-17 3.629474841626927 3.629474841626927 3.629474841626927 -1.1932620750995598e-18" Properties=species:S:1:pos:R:3 mixing_energy=0.030169654718708028 energy=-36.70842453259041 pbc="T T T"
Cu       0.00000000       0.00000000       0.00000000
Cu       1.81473742       1.81473742      -0.00000000
Cu       1.81473742       0.00000000       1.81473742
Ni       3.62947484       1.81473742       1.81473742
Ni       0.00000000       1.81473742       1.81473742
Cu       1.81473742       3.62947484       1.81473742
Ni       1.81473742       1.81473742       3.62947484
Ni       3.62947484       3.62947484       3.62947484
8
Lattice="3.618234740388145e-18 3.629474841626927 3.629474841626927 3.629474841626927 1.7313880990358154e-17 3.629474841626927 3.629474841626927 3.629474841626927 -1.1932620750995598e-18" Properties=species:S:1:pos:R:3 mixing_energy=0.028640653664702587 energy=-38.46545044667416 pbc="T T T"
Cu       0.00000000       0.00000000       0.00000000
Cu       1.81473742       1.81473742      -0.00000000
Cu       1.81473742       0.00000000       1.81473742
Ni       3.62947484       1.81473742       1.81473742
Ni       0.00000000       1.81473742       1.81473742
Ni       1.81473742       3.62947484       1.81473742
Ni       1.81473742       1.81473742       3.62947484
Ni       3.62947484       3.62947484       3.62947484
8
Lattice="3.618234740388145e-18 3.629474841626927 3.629474841626927 3.629474841626927 1.7313880990358154e-17 3.629474841626927 3.629474841626927 3.629474841626927 -1.1932620750995598e-18" Properties=species:S:1:pos:R:3 mixing_energy=0.038581347871143645 energy=-38.38592489302263 pbc="T T T"
Cu       0.00000000       0.00000000       0.00000000
Cu       1.81473742       1.81473742      -0.00000000
Ni       1.81473742       0.00000000       1.81473742
Ni       3.62947484       1.81473742       1.81473742
Ni       0.00000000       1.81473742       1.81473742
Ni       1.81473742       3.62947484       1.81473742
Cu       1.81473742       1.81473742       3.62947484
Ni       3.62947484       3.62947484       3.62947484
8
Lattice="3.618234740388145e-18 3.629474841626927 3.629474841626927 3.629474841626927 1.7313880990358154e-17 3.629474841626927 3.629474841626927 3.629474841626927 -1.1932620750995598e-18" Properties=species:S:1:pos:R:3 mixing_energy=0.018668968307226308 energy=-42.03481174083738 pbc="T T T"
Cu       0.00000000       0.00000000       0.00000000
Ni       1.81473742       1.81473742      -0.00000000
Ni       1.81473742       0.00000000       1.81473742
Ni       3.62947484       1.81473742       1.81473742
Ni       0.00000000       1.81473742       1.81473742
Ni       1.81473742       3.62947484       1.81473742
Ni       1.81473742       1.81473742       3.62947484
Ni       3.62947484       3.62947484       3.62947484
