1
Lattice="1.2114911094686195e-16 1.7579837100288005 1.7579837100288 1.7579837100288005 7.062851580772723e-18 1.7579837100287998 1.7579837100288005 1.7579837100288003 -8.987622968871066e-16" Properties=species:S:1:pos:R:3:initial_magmoms:R:1:forces:R:3:energies:R:1 energy=-5.491119674118361 stress="2.8791369316363995e-08 6.178325083045338e-17 7.335858487232756e-17 6.178325083045338e-17 2.8791369243718575e-08 2.6109010396911534e-17 7.335858487232756e-17 2.6109010396911534e-17 2.8791369329984463e-08" free_energy=-5.491119674118361 pbc="T T T"
Ni       0.00000000       0.00000000       0.00000000       0.60000000       0.00000000       0.00000000       0.00000000      -5.49111967
